     Program PWSCF v.7.2 starts on 23Dec2023 at 22:55: 6

     Waiting for input...
     Reading input from standard input
Warning: card &CELL ignored
Warning: card / ignored

     Current dimensions of program PWSCF are:
     Max number of different atomic species (ntypx) = 10
     Max number of k-points (npk) =  40000
     Max angular momentum in pseudopotentials (lmaxx) =  4
     file Ba.pbe-spn-kjpaw_psl.1.0.0.UPF: wavefunction(s)  5S 6S renormalized
     file Cu.paw.z_11.ld1.psl.v1.0.0-low.upf: wavefunction(s)  4S 3D renormalized
     file Cu.paw.z_11.ld1.psl.v1.0.0-low.upf: wavefunction(s)  4S 3D renormalized
     file Cu.paw.z_11.ld1.psl.v1.0.0-low.upf: wavefunction(s)  4S 3D renormalized
     file O.pbe-n-kjpaw_psl.0.1.UPF: wavefunction(s)  2P renormalized

     R & G space division:  proc/nbgrp/npool/nimage =       4
     Subspace diagonalization in iterative solution of the eigenvalue problem:
     a serial algorithm will be used

     Using Slab Decomposition

     bravais-lattice index     =            8
     lattice parameter (alat)  =       7.2958  a.u.
     unit-cell volume          =    1208.1815 (a.u.)^3
     number of atoms/cell      =           13
     number of atomic types    =            6
     number of electrons       =       106.00
     number of Kohn-Sham states=           64
     kinetic-energy cutoff     =      90.0000  Ry
     charge density cutoff     =     720.0000  Ry
     scf convergence threshold =      1.0E-09
     mixing beta               =       0.3000
     number of iterations used =            8  plain     mixing
     Exchange-correlation= SLA  PW   PBX  PBC
                           (   1   4   3   4   0   0   0)
     Hubbard projectors: ortho-atomic
     Hubbard parameters of DFT+U (Dudarev formulation) in eV:
     U(Cu1-3d) = 10.0000
     U(Cu2-3d) = 10.0000

     Internal variables: lda_plus_u = T, lda_plus_u_kind = 0

     celldm(1)=   7.295777  celldm(2)=   1.020309  celldm(3)=   3.049198
     celldm(4)=   0.000000  celldm(5)=   0.000000  celldm(6)=   0.000000

     crystal axes: (cart. coord. in units of alat)
               a(1) = (   1.000000   0.000000   0.000000 )
               a(2) = (   0.000000   1.020309   0.000000 )
               a(3) = (   0.000000   0.000000   3.049198 )

     reciprocal axes: (cart. coord. in units 2 pi/alat)
               b(1) = (  1.000000  0.000000  0.000000 )
               b(2) = (  0.000000  0.980095  0.000000 )
               b(3) = (  0.000000  0.000000  0.327955 )

     PseudoPot. # 1 for Y  read from file:
     ~/q-e/pseudo/Y_pbe_v1.uspp.F.UPF
     MD5 check sum: Not computed, couldn't open file
     Pseudo is Ultrasoft + core correction, Zval = 11.0
     Generated by new atomic code, or converted to UPF format
     Using radial grid of  885 points,  6 beta functions with:
                l(1) =   0
                l(2) =   0
                l(3) =   1
                l(4) =   1
                l(5) =   2
                l(6) =   2
     Q(r) pseudized with  6 coefficients,  rinner =    1.200   1.200   1.200
                                                       1.200   1.200

     PseudoPot. # 2 for Ba read from file:
     ~/q-e/pseudo/Ba.pbe-spn-kjpaw_psl.1.0.0.UPF
     MD5 check sum: Not computed, couldn't open file
     Pseudo is Projector augmented-wave + core cor, Zval = 10.0
     Generated using "atomic" code by A. Dal Corso  v.5.1
     Shape of augmentation charge: PSQ
     Using radial grid of 1251 points,  7 beta functions with:
                l(1) =   0
                l(2) =   0
                l(3) =   0
                l(4) =   1
                l(5) =   1
                l(6) =   2
                l(7) =   2
     Q(r) pseudized with 0 coefficients

     PseudoPot. # 3 for Cu read from file:
     ~/q-e/pseudo/Cu.paw.z_11.ld1.psl.v1.0.0-low.upf
     MD5 check sum: Not computed, couldn't open file
     Pseudo is Projector augmented-wave + core cor, Zval = 11.0
     Generated using &quot;atomic&quot; code by A. Dal Corso  v.6.3MaX
     Shape of augmentation charge: PSQ
     Using radial grid of 1199 points,  6 beta functions with:
                l(1) =   0
                l(2) =   0
                l(3) =   1
                l(4) =   1
                l(5) =   2
                l(6) =   2
     Q(r) pseudized with 0 coefficients

[...]

     PseudoPot. # 5 for Cu read from file:
     ~/q-e/pseudo/Cu.paw.z_11.ld1.psl.v1.0.0-low.upf
     MD5 check sum: Not computed, couldn't open file
     Pseudo is Projector augmented-wave + core cor, Zval = 11.0
     Generated using &quot;atomic&quot; code by A. Dal Corso  v.6.3MaX
     Shape of augmentation charge: PSQ
     Using radial grid of 1199 points,  6 beta functions with:
                l(1) =   0
                l(2) =   0
                l(3) =   1
                l(4) =   1
                l(5) =   2
                l(6) =   2
     Q(r) pseudized with 0 coefficients

     PseudoPot. # 6 for O  read from file:
     ~/q-e/pseudo/O.pbe-n-kjpaw_psl.0.1.UPF
     MD5 check sum: Not computed, couldn't open file
     Pseudo is Projector augmented-wave + core cor, Zval =  6.0
     Generated using "atomic" code by A. Dal Corso  v.5.0.99 svn rev. 10869
     Shape of augmentation charge: BESSEL
     Using radial grid of 1095 points,  4 beta functions with:
                l(1) =   0
                l(2) =   0
                l(3) =   1
                l(4) =   1
     Q(r) pseudized with 0 coefficients

     atomic species   valence    mass     pseudopotential
     Y                11.00    88.90584     Y ( 1.00)
     Ba               10.00   137.32700     Ba( 1.00)
     Cu               11.00    63.54600     Cu( 1.00)
     Cu1              11.00    63.54600     Cu( 1.00)
     Cu2              11.00    63.54600     Cu( 1.00)
     O                 6.00    15.99900     O ( 1.00)

     Starting magnetic structure
     atomic species   magnetization
     Y               0.000
     Ba              0.000
     Cu              0.000
     Cu1             0.500
     Cu2            -0.500
     O               0.000

      4 Sym. Ops. (no inversion) found

   Cartesian axes

     site n.     atom                  positions (alat units)
         1        Y      tau(   1) = (   0.5000000   0.5101547   1.5245990  )
         2        Ba     tau(   2) = (   0.5000000   0.5101547   0.5582950  )
         3        Ba     tau(   3) = (   0.5000000   0.5101547   2.4909036  )
         4        Cu     tau(   4) = (   0.0000000   0.0000000   0.0000003  )
         5        Cu1    tau(   5) = (   0.0000000   0.0000000   1.0801058  )
         6        Cu2    tau(   6) = (   0.0000000   0.0000000   1.9690906  )
         7        O      tau(   7) = (   0.5000000   0.0000000   1.1546042  )
         8        O      tau(   8) = (   0.5000000   0.0000000   1.8945944  )
         9        O      tau(   9) = (   0.0000000   0.5101547   1.1511962  )
        10        O      tau(  10) = (   0.0000000   0.5101547   1.8980023  )
        11        O      tau(  11) = (   0.0000000   0.5101547   0.0000002  )
        12        O      tau(  12) = (   0.0000000   0.0000000   0.4851820  )
        13        O      tau(  13) = (   0.0000000   0.0000000   2.5640165  )

     number of k points=    27  Methfessel-Paxton smearing, width (Ry)=  0.0300
                       cart. coord. in units 2pi/alat
        k(    1) = (   0.0000000   0.0000000   0.0000000), wk =   0.0156250
        k(    2) = (   0.0000000   0.0000000   0.0819888), wk =   0.0312500
        k(    3) = (   0.0000000   0.0000000  -0.1639775), wk =   0.0156250
        k(    4) = (   0.0000000   0.2450237   0.0000000), wk =   0.0312500
        k(    5) = (   0.0000000   0.2450237   0.0819888), wk =   0.0625000
        k(    6) = (   0.0000000   0.2450237  -0.1639775), wk =   0.0312500
        k(    7) = (   0.0000000  -0.4900475   0.0000000), wk =   0.0156250
        k(    8) = (   0.0000000  -0.4900475   0.0819888), wk =   0.0312500
        k(    9) = (   0.0000000  -0.4900475  -0.1639775), wk =   0.0156250
        k(   10) = (   0.2500000   0.0000000   0.0000000), wk =   0.0312500
        k(   11) = (   0.2500000   0.0000000   0.0819888), wk =   0.0625000
        k(   12) = (   0.2500000   0.0000000  -0.1639775), wk =   0.0312500
        k(   13) = (   0.2500000   0.2450237   0.0000000), wk =   0.0625000
        k(   14) = (   0.2500000   0.2450237   0.0819888), wk =   0.1250000
        k(   15) = (   0.2500000   0.2450237  -0.1639775), wk =   0.0625000
        k(   16) = (   0.2500000  -0.4900475   0.0000000), wk =   0.0312500
        k(   17) = (   0.2500000  -0.4900475   0.0819888), wk =   0.0625000
        k(   18) = (   0.2500000  -0.4900475  -0.1639775), wk =   0.0312500
        k(   19) = (  -0.5000000   0.0000000   0.0000000), wk =   0.0156250
        k(   20) = (  -0.5000000   0.0000000   0.0819888), wk =   0.0312500
        k(   21) = (  -0.5000000   0.0000000  -0.1639775), wk =   0.0156250
        k(   22) = (  -0.5000000   0.2450237   0.0000000), wk =   0.0312500
        k(   23) = (  -0.5000000   0.2450237   0.0819888), wk =   0.0625000
        k(   24) = (  -0.5000000   0.2450237  -0.1639775), wk =   0.0312500
        k(   25) = (  -0.5000000  -0.4900475   0.0000000), wk =   0.0156250
        k(   26) = (  -0.5000000  -0.4900475   0.0819888), wk =   0.0312500
        k(   27) = (  -0.5000000  -0.4900475  -0.1639775), wk =   0.0156250

     Initial potential from superposition of free atoms

     starting charge     105.9608, renormalised to     106.0000

     negative rho (up, down):  2.178E-02 2.178E-02

     STARTING HUBBARD OCCUPATIONS:

     =================== HUBBARD OCCUPATIONS ===================
     ------------------------ ATOM    5 ------------------------
     Tr[ns(  5)] (up, down, total) =   5.00000  4.50000  9.50000
     Atomic magnetic moment for atom   5 =   0.50000
     SPIN  1
     eigenvalues:
       1.000  1.000  1.000  1.000  1.000
     eigenvectors (columns):
       1.000  0.000  0.000  0.000  0.000
       0.000  1.000  0.000  0.000  0.000
       0.000  0.000  1.000  0.000  0.000
       0.000  0.000  0.000  1.000  0.000
       0.000  0.000  0.000  0.000  1.000
     occupation matrix ns (before diag.):
       1.000  0.000  0.000  0.000  0.000
       0.000  1.000  0.000  0.000  0.000
       0.000  0.000  1.000  0.000  0.000
       0.000  0.000  0.000  1.000  0.000
       0.000  0.000  0.000  0.000  1.000
     SPIN  2
     eigenvalues:
       0.900  0.900  0.900  0.900  0.900
     eigenvectors (columns):
       1.000  0.000  0.000  0.000  0.000
       0.000  1.000  0.000  0.000  0.000
       0.000  0.000  1.000  0.000  0.000
       0.000  0.000  0.000  1.000  0.000
       0.000  0.000  0.000  0.000  1.000
     occupation matrix ns (before diag.):
       0.900  0.000  0.000  0.000  0.000
       0.000  0.900  0.000  0.000  0.000
       0.000  0.000  0.900  0.000  0.000
       0.000  0.000  0.000  0.900  0.000
       0.000  0.000  0.000  0.000  0.900
     ------------------------ ATOM    6 ------------------------
     Tr[ns(  6)] (up, down, total) =   4.50000  5.00000  9.50000
     Atomic magnetic moment for atom   6 =  -0.50000
     SPIN  1
     eigenvalues:
       0.900  0.900  0.900  0.900  0.900
     eigenvectors (columns):
       1.000  0.000  0.000  0.000  0.000
       0.000  1.000  0.000  0.000  0.000
       0.000  0.000  1.000  0.000  0.000
       0.000  0.000  0.000  1.000  0.000
       0.000  0.000  0.000  0.000  1.000
     occupation matrix ns (before diag.):
       0.900  0.000  0.000  0.000  0.000
       0.000  0.900  0.000  0.000  0.000
       0.000  0.000  0.900  0.000  0.000
       0.000  0.000  0.000  0.900  0.000
       0.000  0.000  0.000  0.000  0.900
     SPIN  2
     eigenvalues:
       1.000  1.000  1.000  1.000  1.000
     eigenvectors (columns):
       1.000  0.000  0.000  0.000  0.000
       0.000  1.000  0.000  0.000  0.000
       0.000  0.000  1.000  0.000  0.000
       0.000  0.000  0.000  1.000  0.000
       0.000  0.000  0.000  0.000  1.000
     occupation matrix ns (before diag.):
       1.000  0.000  0.000  0.000  0.000
       0.000  1.000  0.000  0.000  0.000
       0.000  0.000  1.000  0.000  0.000
       0.000  0.000  0.000  1.000  0.000
       0.000  0.000  0.000  0.000  1.000

     Number of occupied Hubbard levels =   19.0000

     Atomic wfc used for Hubbard projectors are orthogonalized

     Starting wfcs are   78 randomized atomic wfcs
     Checking if some PAW data can be deallocated...

     Self-consistent Calculation

     iteration #  1     ecut=    90.00 Ry     beta= 0.30
     Davidson diagonalization with overlap
     ethr =  1.00E-02,  avg # of iterations =  7.6

[...]

     total energy              =   -1887.69261512 Ry
     estimated scf accuracy    <      10.88694385 Ry

     total magnetization       =    -0.04 Bohr mag/cell
     absolute magnetization    =     4.57 Bohr mag/cell

[...]

     iteration #  7     ecut=    90.00 Ry     beta= 0.30
     Davidson diagonalization with overlap
     c_bands:  3 eigenvalues not converged
     ethr =  1.27E-04,  avg # of iterations =  8.0

[...]

     iteration # 18     ecut=    90.00 Ry     beta= 0.30
     Davidson diagonalization with overlap
     c_bands:  1 eigenvalues not converged
     ethr =  2.01E-06,  avg # of iterations =  3.1

[...]

     total energy              =   -1891.26026757 Ry
     estimated scf accuracy    <          2.1E-09 Ry

[...]

     iteration # 42     ecut=    90.00 Ry     beta= 0.30
     Davidson diagonalization with overlap
     ethr =  1.97E-12,  avg # of iterations =  1.0

[...]

     Magnetic moment per site  (integrated on atomic sphere of radius R)
     atom   1 (R=0.257)  charge=  7.6045  magn=  0.0000
     atom   2 (R=0.296)  charge=  6.6894  magn= -0.0009
     atom   3 (R=0.296)  charge=  6.6894  magn=  0.0009
     atom   4 (R=0.200)  charge=  8.3061  magn= -0.0000
     atom   5 (R=0.209)  charge=  8.4593  magn=  0.7398
     atom   6 (R=0.209)  charge=  8.4593  magn= -0.7398
     atom   7 (R=0.200)  charge=  5.1704  magn=  0.0539
     atom   8 (R=0.200)  charge=  5.1704  magn= -0.0539
     atom   9 (R=0.200)  charge=  5.1632  magn=  0.0562
     atom  10 (R=0.200)  charge=  5.1632  magn= -0.0562
     atom  11 (R=0.200)  charge=  5.0725  magn= -0.0000
     atom  12 (R=0.200)  charge=  5.1020  magn= -0.0045
     atom  13 (R=0.200)  charge=  5.1020  magn=  0.0044

     End of self-consistent calculation

     =================== HUBBARD OCCUPATIONS ===================
     ------------------------ ATOM    5 ------------------------
     Tr[ns(  5)] (up, down, total) =   4.96798  4.24688  9.21486
     Atomic magnetic moment for atom   5 =   0.72109
     SPIN  1
     eigenvalues:
       0.985  0.988  0.998  0.998  0.999
     eigenvectors (columns):
      -0.201  0.980  0.000  0.000  0.000
      -0.000  0.000 -1.000  0.000  0.000
      -0.000  0.000 -0.000 -1.000  0.000
       0.980  0.201 -0.000 -0.000 -0.000
       0.000 -0.000  0.000  0.000  1.000
     occupation matrix ns (before diag.):
       0.988 -0.000 -0.000  0.001  0.000
      -0.000  0.998 -0.000  0.000  0.000
      -0.000 -0.000  0.998  0.000  0.000
       0.001  0.000  0.000  0.985 -0.000
       0.000  0.000  0.000 -0.000  0.999
     SPIN  2
     eigenvalues:
       0.267  0.986  0.998  0.998  0.999
     eigenvectors (columns):
      -0.032  0.999 -0.000 -0.000  0.000
      -0.000  0.000  1.000 -0.000  0.000
      -0.000  0.000  0.000  1.000  0.000
       0.999  0.032 -0.000 -0.000  0.000
       0.000 -0.000 -0.000 -0.000  1.000
     occupation matrix ns (before diag.):
       0.986 -0.000 -0.000  0.023  0.000
      -0.000  0.998 -0.000  0.000  0.000
      -0.000 -0.000  0.998  0.000  0.000
       0.023  0.000  0.000  0.267 -0.000
       0.000  0.000  0.000 -0.000  0.999
     ------------------------ ATOM    6 ------------------------
     Tr[ns(  6)] (up, down, total) =   4.24688  4.96798  9.21486
     Atomic magnetic moment for atom   6 =  -0.72109
     SPIN  1
     eigenvalues:
       0.267  0.986  0.998  0.998  0.999
     eigenvectors (columns):
      -0.032  0.999 -0.000 -0.000  0.000
      -0.000  0.000  1.000 -0.000  0.000
      -0.000  0.000  0.000  1.000  0.000
       0.999  0.032 -0.000 -0.000  0.000
       0.000 -0.000 -0.000 -0.000  1.000
     occupation matrix ns (before diag.):
       0.986 -0.000 -0.000  0.023  0.000
      -0.000  0.998 -0.000  0.000  0.000
      -0.000 -0.000  0.998  0.000  0.000
       0.023  0.000  0.000  0.267 -0.000
       0.000  0.000  0.000 -0.000  0.999
     SPIN  2
     eigenvalues:
       0.985  0.988  0.998  0.998  0.999
     eigenvectors (columns):
      -0.201  0.980  0.000  0.000  0.000
      -0.000  0.000 -1.000  0.000  0.000
      -0.000  0.000 -0.000 -1.000  0.000
       0.980  0.201 -0.000 -0.000 -0.000
       0.000 -0.000  0.000  0.000  1.000
     occupation matrix ns (before diag.):
       0.988 -0.000 -0.000  0.001  0.000
      -0.000  0.998 -0.000  0.000  0.000
      -0.000 -0.000  0.998  0.000  0.000
       0.001  0.000  0.000  0.985 -0.000
       0.000  0.000  0.000 -0.000  0.999

     Number of occupied Hubbard levels =   18.4297

 ------ SPIN UP ------------

          k = 0.0000 0.0000 0.0000 ( 17411 PWs)   bands (ev):

   -31.3277 -16.2730 -16.2523 -11.7508 -11.3275 -11.3078  -8.3690  -7.8365
    -7.5619  -7.4703  -7.0462  -6.9250  -6.8353  -1.4723  -1.4376  -1.3180
    -1.2942  -1.1762  -1.1350   1.1332   1.3302   1.4679   1.5048   1.5667
     1.8973   2.0136   2.0880   2.6137   4.6933   5.3276   5.3974   5.7515
     5.8038   5.9074   6.0758   6.1599   6.2753   6.3040   6.6526   6.8104
     6.8925   7.3370   7.3925   8.0011   8.1099   8.1842   8.1941   8.4002
     8.4807   8.5180   8.5853   8.7203   8.9251   8.9435  10.5076  11.9750
    12.8287  13.6316  13.7236  14.4032  14.8782  15.0388  15.5287  15.6773

[...]

          k =-0.5000 0.0000 0.0000 ( 17502 PWs)   bands (ev):

[...]

 ------ SPIN DOWN ----------

[...]

          k = 0.2500-0.4900-0.1640 ( 17432 PWs)   bands (ev):

[...]

          k =-0.5000-0.4900-0.1640 ( 17448 PWs)   bands (ev):

   -31.3078 -16.0810 -16.0682 -11.7917 -11.7538 -11.3655  -7.4106  -7.3821
    -7.3333  -7.3151  -7.1317  -6.9966  -6.8757  -2.0254  -2.0170  -1.9962
    -1.7845  -1.6480  -1.4500  -0.4377   0.8653   1.1707   1.3817   1.5455
     1.6016   1.8772   2.0405   2.1120   3.3745   3.7378   4.0527   5.4419
     5.6041   5.8621   6.0771   6.2633   6.2683   6.8923   7.2072   7.4606
     7.4614   7.4870   7.9007   7.9571   8.1294   8.4180   8.4605   8.6893
     8.7005   9.0209   9.0263   9.1117   9.8378  10.8291  12.1211  12.9536
    13.0470  15.0919  15.1796  15.2320  15.5384  15.8854  15.8904  16.3430

     the Fermi energy is     9.1008 ev

!    total energy              =   -1891.26026757 Ry
     estimated scf accuracy    <          9.6E-10 Ry
     smearing contrib. (-TS)   =       0.00574806 Ry
     internal energy E=F+TS    =   -1891.26601563 Ry

     The total energy is F=E-TS. E is the sum of the following terms:
     one-electron contribution =    -261.85084299 Ry
     hartree contribution      =     227.00919346 Ry
     xc contribution           =    -248.57253264 Ry
     ewald contribution        =    -521.89411709 Ry
     Hubbard energy            =       0.18119579 Ry
     one-center paw contrib.   =   -1086.13891216 Ry

     total magnetization       =    -0.00 Bohr mag/cell
     absolute magnetization    =     1.83 Bohr mag/cell

     convergence has been achieved in  42 iterations

     negative rho (up, down):  2.247E-02 2.247E-02

     Forces acting on atoms (cartesian axes, Ry/au):

     atom    1 type  1   force =     0.00000000    0.00000000   -0.00000050
     atom    2 type  2   force =     0.00000000    0.00000000    0.00426154
     atom    3 type  2   force =     0.00000000    0.00000000   -0.00426086
     atom    4 type  3   force =     0.00000000    0.00000000    0.00000069
     atom    5 type  4   force =     0.00000000    0.00000000   -0.00410298
     atom    6 type  5   force =     0.00000000    0.00000000    0.00410280
     atom    7 type  6   force =     0.00000000    0.00000000    0.00662982
     atom    8 type  6   force =     0.00000000    0.00000000   -0.00663194
     atom    9 type  6   force =     0.00000000    0.00000000    0.00767822
     atom   10 type  6   force =     0.00000000    0.00000000   -0.00767752
     atom   11 type  6   force =     0.00000000    0.00000000   -0.00000003
     atom   12 type  6   force =     0.00000000    0.00000000   -0.01946425
     atom   13 type  6   force =     0.00000000    0.00000000    0.01946500

     Total force =     0.032149     Total SCF correction =     0.000008

     Writing all to output data dir ./YBCO7/YBCO7.save/

     General routines

     Parallel routines

     Hubbard U routines
                                        0.00s GPU  (       1 calls)

   This run was terminated on:  23:13:30  23Dec2023

   JOB DONE.