     Program PWSCF v.7.2 starts on 14Dec2023 at  0:46:13

     Waiting for input...
     Reading input from standard input

     Current dimensions of program PWSCF are:
     Max number of different atomic species (ntypx) = 10
     Max number of k-points (npk) =  40000
     Max angular momentum in pseudopotentials (lmaxx) =  4

     R & G space division:  proc/nbgrp/npool/nimage =       4
     Subspace diagonalization in iterative solution of the eigenvalue problem:
     a serial algorithm will be used

     Using Slab Decomposition

     bravais-lattice index     =            8
     lattice parameter (alat)  =       7.2193  a.u.
     unit-cell volume          =    1170.3381 (a.u.)^3
     number of atoms/cell      =           13
     number of atomic types    =            6
     number of electrons       =       130.00
     number of Kohn-Sham states=           78
     kinetic-energy cutoff     =      90.0000  Ry
     charge density cutoff     =     720.0000  Ry
     scf convergence threshold =      1.0E-08
     mixing beta               =       0.1000
     number of iterations used =            8  plain     mixing
     energy convergence thresh.=      1.0E-04
     force convergence thresh. =      1.0E-03
     press convergence thresh. =      5.0E-01
     Exchange-correlation= SLA  PW   PBE  PBE
                           (   1   4   3   4   0   0   0)
     nstep                     =           50

     Hubbard projectors: ortho-atomic
     Hubbard parameters of DFT+U (Dudarev formulation) in eV:
     U(Cu1-3d) = 10.0000
     U(Cu2-3d) = 10.0000

     Internal variables: lda_plus_u = T, lda_plus_u_kind = 0

     celldm(1)=   7.219321  celldm(2)=   1.017061  celldm(3)=   3.058265
     celldm(4)=   0.000000  celldm(5)=   0.000000  celldm(6)=   0.000000

     crystal axes: (cart. coord. in units of alat)
               a(1) = (   1.000000   0.000000   0.000000 )
               a(2) = (   0.000000   1.017061   0.000000 )
               a(3) = (   0.000000   0.000000   3.058265 )

     reciprocal axes: (cart. coord. in units 2 pi/alat)
               b(1) = (  1.000000  0.000000  0.000000 )
               b(2) = (  0.000000  0.983225  0.000000 )
               b(3) = (  0.000000  0.000000  0.326983 )

     PseudoPot. # 1 for Y  read from file:
     ~/q-e/pseudo/all_pbe_UPF_v1.5/y_pbe_v1.4.uspp.F.UPF
     MD5 check sum: Not computed, couldn't open file
     Pseudo is Ultrasoft + core correction, Zval = 11.0
     Generated by new atomic code, or converted to UPF format
     Using radial grid of  885 points,  6 beta functions with:
                l(1) =   0
                l(2) =   0
                l(3) =   1
                l(4) =   1
                l(5) =   2
                l(6) =   2
     Q(r) pseudized with  8 coefficients,  rinner =    1.200   1.200   1.200
                                                       1.200   1.200

     PseudoPot. # 2 for Ba read from file:
     ~/q-e/pseudo/all_pbe_UPF_v1.5/ba_pbe_v1.uspp.F.UPF
     MD5 check sum: Not computed, couldn't open file
     Pseudo is Ultrasoft + core correction, Zval = 10.0
     Generated by new atomic code, or converted to UPF format
     Using radial grid of  907 points,  7 beta functions with:
                l(1) =   0
                l(2) =   0
                l(3) =   1
                l(4) =   1
                l(5) =   2
                l(6) =   2
                l(7) =   3
     Q(r) pseudized with  6 coefficients,  rinner =    1.700   1.700   1.700
                                                       1.700   1.700   1.700
                                                       1.700

     PseudoPot. # 3 for Cu read from file:
     ~/q-e/pseudo/all_pbe_UPF_v1.5/cu_pbe_v1.2.uspp.F.UPF
     MD5 check sum: Not computed, couldn't open file
     Pseudo is Ultrasoft + core correction, Zval = 19.0
     Generated by new atomic code, or converted to UPF format
     Using radial grid of  867 points,  6 beta functions with:
                l(1) =   0
                l(2) =   0
                l(3) =   1
                l(4) =   1
                l(5) =   2
                l(6) =   2
     Q(r) pseudized with  8 coefficients,  rinner =    1.150   1.150   1.150
                                                       1.150   1.150

[...]

     PseudoPot. # 6 for O  read from file:
     ~/q-e/pseudo/all_pbe_UPF_v1.5/o_pbe_v1.2.uspp.F.UPF
     MD5 check sum: Not computed, couldn't open file
     Pseudo is Ultrasoft + core correction, Zval =  6.0
     Generated by new atomic code, or converted to UPF format
     Using radial grid of  737 points,  5 beta functions with:
                l(1) =   0
                l(2) =   0
                l(3) =   1
                l(4) =   1
                l(5) =   2
     Q(r) pseudized with  8 coefficients,  rinner =    0.900   0.900   0.900
                                                       0.900   0.900

     atomic species   valence    mass     pseudopotential
     Y                11.00    88.90584     Y ( 1.00)
     Ba               10.00   137.32700     Ba( 1.00)
     Cu               19.00    63.54600     Cu( 1.00)
     Cu1              19.00    63.54600     Cu( 1.00)
     Cu2              19.00    63.54600     Cu( 1.00)
     O                 6.00    15.99900     O ( 1.00)

     Starting magnetic structure
     atomic species   magnetization
     Y               0.000
     Ba              0.000
     Cu              0.000
     Cu1             0.100
     Cu2            -0.100
     O               0.000

      4 Sym. Ops. (no inversion) found

                                    s                        frac. trans.

      isym =  1     identity

 cryst.   s( 1) = (     1          0          0      )
                  (     0          1          0      )
                  (     0          0          1      )

 cart.    s( 1) = (  1.0000000  0.0000000  0.0000000 )
                  (  0.0000000  1.0000000  0.0000000 )
                  (  0.0000000  0.0000000  1.0000000 )

      isym =  2     180 deg rotation - cart. axis [0,0,1]

[...]

      isym =  3     inv. 180 deg rotation - cart. axis [0,1,0]

[...]

     point group C_2v (mm2)
     there are  4 classes
     the character table:

       E     C2    s_v   s_v'
A_1    1.00  1.00  1.00  1.00
A_2    1.00  1.00 -1.00 -1.00
B_1    1.00 -1.00  1.00 -1.00
B_2    1.00 -1.00 -1.00  1.00

     the symmetry operations in each class and the name of the first element:

     E        1
          identity
     C2       2
          180 deg rotation - cart. axis [0,0,1]
     s_v      4
          inv. 180 deg rotation - cart. axis [1,0,0]
     s_v'     3
          inv. 180 deg rotation - cart. axis [0,1,0]

   Cartesian axes

     site n.     atom                  positions (alat units)
         1        Y      tau(   1) = (   0.5000000   0.5085307   1.5291325  )
         2        Ba     tau(   2) = (   0.5000000   0.5085307   0.5625067  )
         3        Ba     tau(   3) = (   0.5000000   0.5085307   2.4957584  )
         4        Cu     tau(   4) = (   0.0000000   0.0000000   0.0000000  )
         5        Cu1    tau(   5) = (   0.0000000   0.0000000   1.0857147  )
         6        Cu2    tau(   6) = (   0.0000000   0.0000000   1.9725504  )
         7        O      tau(   7) = (   0.5000000   0.0000000   1.1566053  )
         8        O      tau(   8) = (   0.5000000   0.0000000   1.9016598  )
         9        O      tau(   9) = (   0.0000000   0.5085307   1.1527518  )
        10        O      tau(  10) = (   0.0000000   0.5085307   1.9055132  )
        11        O      tau(  11) = (   0.0000000   0.5085307   0.0000000  )
        12        O      tau(  12) = (   0.0000000   0.0000000   0.4844292  )
        13        O      tau(  13) = (   0.0000000   0.0000000   2.5738359  )

   Crystallographic axes

     site n.     atom                  positions (cryst. coord.)
         1        Y      tau(   1) = (  0.5000000  0.5000000  0.5000000  )
         2        Ba     tau(   2) = (  0.5000000  0.5000000  0.1839300  )
         3        Ba     tau(   3) = (  0.5000000  0.5000000  0.8160700  )
         4        Cu     tau(   4) = (  0.0000000  0.0000000  0.0000000  )
         5        Cu1    tau(   5) = (  0.0000000  0.0000000  0.3550100  )
         6        Cu2    tau(   6) = (  0.0000000  0.0000000  0.6449900  )
         7        O      tau(   7) = (  0.5000000  0.0000000  0.3781900  )
         8        O      tau(   8) = (  0.5000000  0.0000000  0.6218100  )
         9        O      tau(   9) = (  0.0000000  0.5000000  0.3769300  )
        10        O      tau(  10) = (  0.0000000  0.5000000  0.6230700  )
        11        O      tau(  11) = (  0.0000000  0.5000000  0.0000000  )
        12        O      tau(  12) = (  0.0000000  0.0000000  0.1584000  )
        13        O      tau(  13) = (  0.0000000  0.0000000  0.8416000  )

     number of k points=     8  Methfessel-Paxton smearing, width (Ry)=  0.0200
                       cart. coord. in units 2pi/alat
        k(    1) = (   0.0000000   0.0000000   0.0000000), wk =   0.1250000
        k(    2) = (   0.0000000   0.0000000  -0.1634914), wk =   0.1250000
        k(    3) = (   0.0000000  -0.4916124   0.0000000), wk =   0.1250000
        k(    4) = (   0.0000000  -0.4916124  -0.1634914), wk =   0.1250000
        k(    5) = (  -0.5000000   0.0000000   0.0000000), wk =   0.1250000
        k(    6) = (  -0.5000000   0.0000000  -0.1634914), wk =   0.1250000
        k(    7) = (  -0.5000000  -0.4916124   0.0000000), wk =   0.1250000
        k(    8) = (  -0.5000000  -0.4916124  -0.1634914), wk =   0.1250000

                       cryst. coord.
        k(    1) = (   0.0000000   0.0000000   0.0000000), wk =   0.1250000
        k(    2) = (   0.0000000   0.0000000  -0.5000000), wk =   0.1250000
        k(    3) = (   0.0000000  -0.5000000   0.0000000), wk =   0.1250000
        k(    4) = (   0.0000000  -0.5000000  -0.5000000), wk =   0.1250000
        k(    5) = (  -0.5000000   0.0000000   0.0000000), wk =   0.1250000
        k(    6) = (  -0.5000000   0.0000000  -0.5000000), wk =   0.1250000
        k(    7) = (  -0.5000000  -0.5000000   0.0000000), wk =   0.1250000
        k(    8) = (  -0.5000000  -0.5000000  -0.5000000), wk =   0.1250000

     Initial potential from superposition of free atoms

     starting charge     126.9655, renormalised to     130.0000

     negative rho (up, down):  9.664E-02 9.664E-02

     HUBBARD ENERGY =    0.8820  (Ry)

     STARTING HUBBARD OCCUPATIONS:

     =================== HUBBARD OCCUPATIONS ===================
     ------------------------ ATOM    5 ------------------------
     Tr[ns(  5)] (up, down, total) =   5.00000  3.00000  8.00000
     Atomic magnetic moment for atom   5 =   2.00000
     SPIN  1
     eigenvalues:
       1.000  1.000  1.000  1.000  1.000
     eigenvectors (columns):
       1.000  0.000  0.000  0.000  0.000
       0.000  1.000  0.000  0.000  0.000
       0.000  0.000  1.000  0.000  0.000
       0.000  0.000  0.000  1.000  0.000
       0.000  0.000  0.000  0.000  1.000
     occupation matrix ns (before diag.):
       1.000  0.000  0.000  0.000  0.000
       0.000  1.000  0.000  0.000  0.000
       0.000  0.000  1.000  0.000  0.000
[...]

[...]

     total energy              =   -1671.19731019 Ry
     estimated scf accuracy    <          2.1E-10 Ry

[...]

     iteration # 43     ecut=    90.00 Ry     beta= 0.10
     Davidson diagonalization with overlap

     ethr =  1.63E-13,  avg # of iterations =  2.0

     =================== HUBBARD OCCUPATIONS ===================
     ------------------------ ATOM    5 ------------------------
     Tr[ns(  5)] (up, down, total) =   4.93269  4.12819  9.06088
     Atomic magnetic moment for atom   5 =   0.80450
     SPIN  1
     eigenvalues:
       0.968  0.986  0.992  0.992  0.995
     eigenvectors (columns):
      -0.029  1.000 -0.000 -0.000  0.000
      -0.000  0.000  0.000  1.000  0.000
      -0.000  0.000  1.000 -0.000  0.000
       1.000  0.029  0.000  0.000 -0.000
       0.000 -0.000 -0.000 -0.000  1.000
     occupation matrix ns (before diag.):
       0.986 -0.000 -0.000  0.001  0.000
      -0.000  0.992 -0.000  0.000  0.000
      -0.000 -0.000  0.992  0.000  0.000
       0.001  0.000  0.000  0.968 -0.000
       0.000  0.000  0.000 -0.000  0.995
     SPIN  2
     eigenvalues:
       0.172  0.983  0.990  0.991  0.993
     eigenvectors (columns):
      -0.078  0.997 -0.000 -0.000  0.000
      -0.000  0.000  0.000  1.000  0.000
      -0.000  0.000  1.000 -0.000  0.000
       0.997  0.078 -0.000 -0.000  0.000
       0.000 -0.000 -0.000 -0.000  1.000
     occupation matrix ns (before diag.):
       0.978 -0.000 -0.000  0.063  0.000
      -0.000  0.991 -0.000  0.000  0.000
      -0.000 -0.000  0.990  0.000  0.000
       0.063  0.000  0.000  0.177 -0.000
       0.000  0.000  0.000 -0.000  0.993
     ------------------------ ATOM    6 ------------------------
     Tr[ns(  6)] (up, down, total) =   4.12819  4.93269  9.06088
     Atomic magnetic moment for atom   6 =  -0.80450
     SPIN  1
     eigenvalues:
       0.172  0.983  0.990  0.991  0.993
     eigenvectors (columns):
      -0.078  0.997 -0.000 -0.000  0.000
      -0.000  0.000  0.000  1.000  0.000
      -0.000  0.000  1.000 -0.000  0.000
       0.997  0.078 -0.000 -0.000  0.000
       0.000 -0.000 -0.000 -0.000  1.000
     occupation matrix ns (before diag.):
       0.978 -0.000 -0.000  0.063  0.000
      -0.000  0.991 -0.000  0.000  0.000
      -0.000 -0.000  0.990  0.000  0.000
       0.063  0.000  0.000  0.177 -0.000
       0.000  0.000  0.000 -0.000  0.993
     SPIN  2
     eigenvalues:
       0.968  0.986  0.992  0.992  0.995
     eigenvectors (columns):
      -0.029  1.000 -0.000 -0.000  0.000
      -0.000  0.000  0.000  1.000  0.000
      -0.000  0.000  1.000 -0.000  0.000
       1.000  0.029  0.000  0.000 -0.000
       0.000 -0.000 -0.000 -0.000  1.000
     occupation matrix ns (before diag.):
       0.986 -0.000 -0.000  0.001  0.000
      -0.000  0.992 -0.000  0.000  0.000
      -0.000 -0.000  0.992  0.000  0.000
       0.001  0.000  0.000  0.968 -0.000
       0.000  0.000  0.000 -0.000  0.995

     Number of occupied Hubbard levels =   18.1218

[...]

     HUBBARD ENERGY =    0.1844  (Ry)

     Magnetic moment per site  (integrated on atomic sphere of radius R)
     atom   1 (R=0.258)  charge=  7.5544  magn= -0.0000
     atom   2 (R=0.296)  charge=  6.6091  magn=  0.0002
     atom   3 (R=0.296)  charge=  6.6091  magn= -0.0002
     atom   4 (R=0.200)  charge= 16.1367  magn=  0.0001
     atom   5 (R=0.208)  charge= 16.2989  magn=  0.7942
     atom   6 (R=0.208)  charge= 16.2989  magn= -0.7942
     atom   7 (R=0.200)  charge=  5.1022  magn= -0.0463
     atom   8 (R=0.200)  charge=  5.1022  magn=  0.0463
     atom   9 (R=0.200)  charge=  5.0893  magn= -0.0526
     atom  10 (R=0.200)  charge=  5.0893  magn=  0.0526
     atom  11 (R=0.200)  charge=  5.0272  magn= -0.0002
     atom  12 (R=0.200)  charge=  5.0515  magn=  0.0014
     atom  13 (R=0.200)  charge=  5.0515  magn= -0.0012

     End of self-consistent calculation

 ------ SPIN UP ------------

[...]

 ------ SPIN DOWN ----------

[...]

          k = 0.0000-0.4791-0.1618 ( 17612 PWs)   bands (ev):

[...]

          k =-0.4952-0.4791-0.1618 ( 17656 PWs)   bands (ev):

  -103.7066-102.5039-102.1415 -61.7194 -61.4328 -60.1438 -60.0634 -60.0322
   -59.7044 -59.5441 -59.5167 -59.2967 -31.0273 -15.4665 -15.4482 -11.5020
   -11.4319 -11.0702  -7.0358  -6.9598  -6.6738  -6.5244  -6.4777  -6.3266
    -6.2732  -1.4019  -1.3677  -1.3351  -1.1031  -1.0575  -0.7898   0.1682
     1.0425   1.7236   1.7434   1.8351   1.9681   2.2715   2.5331   2.6625
     3.7578   4.3443   5.2033   6.2519   6.4872   6.5530   6.6999   6.9108
     7.2378   7.5346   7.5638   7.6574   7.7272   8.2172   8.2955   8.4983
     8.7469   8.7632   9.1434   9.3299   9.6456   9.6716   9.8292   9.8706
    10.2099  11.8419  12.6159  13.4099  13.5957  15.3728  15.6292  15.6336
    16.0888  16.0932  16.3256  16.6841  16.8546  17.5613

     occupation numbers
     1.0000   1.0000   1.0000   1.0000   1.0000   1.0000   1.0000   1.0000
     1.0000   1.0000   1.0000   1.0000   1.0000   1.0000   1.0000   1.0000
     1.0000   1.0000   1.0000   1.0000   1.0000   1.0000   1.0000   1.0000
     1.0000   1.0000   1.0000   1.0000   1.0000   1.0000   1.0000   1.0000
     1.0000   1.0000   1.0000   1.0000   1.0000   1.0000   1.0000   1.0000
     1.0000   1.0000   1.0000   1.0000   1.0000   1.0000   1.0000   1.0000
     1.0000   1.0000   1.0000   1.0000   1.0000   1.0000   1.0000   1.0000
     1.0000   1.0000   1.0002   1.0037   1.0303   1.0211   0.8011   0.6920
    -0.0264  -0.0000  -0.0000  -0.0000  -0.0000  -0.0000  -0.0000  -0.0000
    -0.0000  -0.0000  -0.0000  -0.0000  -0.0000  -0.0000

     the Fermi energy is     9.9342 ev

!    total energy              =   -1671.19731082 Ry
     estimated scf accuracy    <          8.9E-11 Ry
     smearing contrib. (-TS)   =      -0.00133451 Ry
     internal energy E=F+TS    =   -1671.19597632 Ry

     The total energy is F=E-TS. E is the sum of the following terms:
     one-electron contribution =   -1264.44573094 Ry
     hartree contribution      =     702.98200472 Ry
     xc contribution           =    -250.55411735 Ry
     ewald contribution        =    -859.36258071 Ry
     Hubbard energy            =       0.18444797 Ry

     total magnetization       =     0.00 Bohr mag/cell
     absolute magnetization    =     2.02 Bohr mag/cell

     convergence has been achieved in  43 iterations

     negative rho (up, down):  8.658E-02 8.658E-02

     Forces acting on atoms (cartesian axes, Ry/au):

     atom    1 type  1   force =     0.00000000    0.00000000   -0.00000035
     atom    2 type  2   force =     0.00000000    0.00000000    0.00010239
     atom    3 type  2   force =     0.00000000    0.00000000   -0.00010235
     atom    4 type  3   force =     0.00000000    0.00000000   -0.00000050
     atom    5 type  4   force =     0.00000000    0.00000000   -0.00006047
     atom    6 type  5   force =     0.00000000    0.00000000    0.00006052
     atom    7 type  6   force =     0.00000000    0.00000000   -0.00009627
     atom    8 type  6   force =     0.00000000    0.00000000    0.00009607
     atom    9 type  6   force =     0.00000000    0.00000000   -0.00017784
     atom   10 type  6   force =     0.00000000    0.00000000    0.00017765
     atom   11 type  6   force =     0.00000000    0.00000000    0.00000036
     atom   12 type  6   force =     0.00000000    0.00000000    0.00018293
     atom   13 type  6   force =     0.00000000    0.00000000   -0.00018214
     The non-local contrib.  to forces
     atom    1 type  1   force =     0.00000000    0.00000000   -0.00000022
     atom    2 type  2   force =     0.00000000    0.00000000    0.03009152
     atom    3 type  2   force =     0.00000000    0.00000000   -0.03009131
     atom    4 type  3   force =     0.00000000    0.00000000   -0.00000091
     atom    5 type  4   force =     0.00000000    0.00000000   -0.02523541
     atom    6 type  5   force =     0.00000000    0.00000000    0.02522728
     atom    7 type  6   force =     0.00000000    0.00000000   -0.02895047
     atom    8 type  6   force =     0.00000000    0.00000000    0.02894924
     atom    9 type  6   force =     0.00000000    0.00000000    0.06165163
     atom   10 type  6   force =     0.00000000    0.00000000   -0.06165394
     atom   11 type  6   force =     0.00000000    0.00000000    0.00000075
     atom   12 type  6   force =     0.00000000    0.00000000   -0.35506821
     atom   13 type  6   force =     0.00000000    0.00000000    0.35506625
     The ionic contribution  to forces
     atom    1 type  1   force =     0.00000000    0.00000000   -0.00008768
     atom    2 type  2   force =     0.00000000    0.00000000   -9.26832218
     atom    3 type  2   force =     0.00000000    0.00000000    9.26842927
     atom    4 type  3   force =    -0.00000000   -0.00000000    0.00021595
     atom    5 type  4   force =    -0.00000000   -0.00000000  -24.20828781
     atom    6 type  5   force =    -0.00000000   -0.00000000   24.20798706
     atom    7 type  6   force =     0.00000000   -0.00000000   -4.67711054
     atom    8 type  6   force =     0.00000000   -0.00000000    4.67703302
     atom    9 type  6   force =    -0.00000000    0.00000000   -5.44475180
     atom   10 type  6   force =    -0.00000000    0.00000000    5.44466029
     atom   11 type  6   force =    -0.00000000    0.00000000    0.00006708
     atom   12 type  6   force =    -0.00000000   -0.00000000    1.21196502
     atom   13 type  6   force =    -0.00000000   -0.00000000   -1.21179768
     The local contribution  to forces
     atom    1 type  1   force =     0.00000000    0.00000000    0.00008730
     atom    2 type  2   force =     0.00000000    0.00000000    9.23917273
     atom    3 type  2   force =     0.00000000    0.00000000   -9.23927976
     atom    4 type  3   force =    -0.00000000    0.00000000   -0.00021483
     atom    5 type  4   force =    -0.00000000   -0.00000000   24.22582298
     atom    6 type  5   force =    -0.00000000   -0.00000000  -24.22551425
     atom    7 type  6   force =     0.00000000    0.00000000    4.70578437
     atom    8 type  6   force =     0.00000000    0.00000000   -4.70570619
     atom    9 type  6   force =     0.00000000    0.00000000    5.38287337
     atom   10 type  6   force =     0.00000000    0.00000000   -5.38277994
     atom   11 type  6   force =    -0.00000000    0.00000000   -0.00006735
     atom   12 type  6   force =     0.00000000   -0.00000000   -0.85782820
     atom   13 type  6   force =    -0.00000000   -0.00000000    0.85766379
     The core correction contribution to forces
     atom    1 type  1   force =    -0.00000000   -0.00000000    0.00000001
     atom    2 type  2   force =    -0.00000000   -0.00000000    0.00019727
     atom    3 type  2   force =    -0.00000000   -0.00000000   -0.00019727
     atom    4 type  3   force =    -0.00000000    0.00000000   -0.00000000
     atom    5 type  4   force =     0.00000000   -0.00000000    0.00012823
     atom    6 type  5   force =    -0.00000000    0.00000000   -0.00012821
     atom    7 type  6   force =     0.00000000   -0.00000000    0.00060697
     atom    8 type  6   force =     0.00000000    0.00000000   -0.00060696
     atom    9 type  6   force =    -0.00000000    0.00000000    0.00006813
     atom   10 type  6   force =    -0.00000000    0.00000000   -0.00006811
     atom   11 type  6   force =    -0.00000000    0.00000000   -0.00000001
     atom   12 type  6   force =     0.00000000   -0.00000000    0.00218277
     atom   13 type  6   force =    -0.00000000   -0.00000000   -0.00218276
     The Hubbard contrib.    to forces
     atom    1 type  1   force =     0.00000000    0.00000000    0.00000000
     atom    2 type  2   force =     0.00000000    0.00000000   -0.00104347
     atom    3 type  2   force =     0.00000000    0.00000000    0.00104348
     atom    4 type  3   force =     0.00000000    0.00000000    0.00000000
     atom    5 type  4   force =     0.00000000    0.00000000    0.00749984
     atom    6 type  5   force =     0.00000000    0.00000000   -0.00750046
     atom    7 type  6   force =     0.00000000    0.00000000   -0.00042670
     atom    8 type  6   force =     0.00000000    0.00000000    0.00042671
     atom    9 type  6   force =     0.00000000    0.00000000   -0.00001842
     atom   10 type  6   force =     0.00000000    0.00000000    0.00001842
     atom   11 type  6   force =     0.00000000    0.00000000    0.00000000
     atom   12 type  6   force =     0.00000000    0.00000000   -0.00107117
     atom   13 type  6   force =     0.00000000    0.00000000    0.00107120
     The SCF correction term to forces
     atom    1 type  1   force =    -0.00000000    0.00000000    0.00000026
     atom    2 type  2   force =     0.00000000   -0.00000000    0.00000654
     atom    3 type  2   force =    -0.00000000    0.00000000   -0.00000675
     atom    4 type  3   force =    -0.00000000   -0.00000000   -0.00000071
     atom    5 type  4   force =     0.00000000   -0.00000000    0.00001171
     atom    6 type  5   force =    -0.00000000    0.00000000   -0.00001088
     atom    7 type  6   force =    -0.00000000    0.00000000    0.00000012
     atom    8 type  6   force =    -0.00000000   -0.00000000    0.00000026
     atom    9 type  6   force =     0.00000000    0.00000000   -0.00000074
     atom   10 type  6   force =    -0.00000000   -0.00000000    0.00000094
     atom   11 type  6   force =     0.00000000   -0.00000000   -0.00000010
     atom   12 type  6   force =    -0.00000000   -0.00000000    0.00000274
     atom   13 type  6   force =    -0.00000000    0.00000000   -0.00000293

     Total force =     0.000420     Total SCF correction =     0.000019

     Computing stress (Cartesian axis) and pressure

     negative rho (up, down):  8.658E-02 8.658E-02
          total   stress  (Ry/bohr**3)                   (kbar)     P=        0.20
   0.00000088   0.00000000   0.00000000            0.13        0.00        0.00
   0.00000000   0.00000266   0.00000000            0.00        0.39        0.00
   0.00000000   0.00000000   0.00000053            0.00        0.00        0.08

     kinetic stress (kbar)  21917.64      0.00      0.00
                                0.00  21798.13      0.00
                                0.00      0.00  22131.41

     local   stress (kbar) -17315.52      0.00      0.00
                                0.00 -32361.68     -0.00
                                0.00     -0.00  -5498.77

     nonloc. stress (kbar)  11827.39      0.00      0.00
                                0.00  11893.25      0.00
                                0.00      0.00  12358.83

     hartree stress (kbar)  27703.37     -0.00     -0.00
                               -0.00  34567.85      0.00
                               -0.00      0.00  22134.15

     exc-cor stress (kbar)   -466.54     -0.00      0.00
                               -0.00   -463.15     -0.00
                                0.00     -0.00   -466.01

     corecor stress (kbar)  -7488.73      0.00     -0.00
                                0.00  -7489.05     -0.00
                               -0.00     -0.00  -7490.44

     ewald   stress (kbar) -34870.06     -0.00      0.00
                               -0.00 -26612.07      0.00
                                0.00      0.00 -41699.49

     hubbard stress (kbar)  -1307.42      0.00      0.00
                                0.00  -1332.89      0.00
                                0.00      0.00  -1469.60

     DFT-D   stress (kbar)      0.00      0.00      0.00
                                0.00      0.00      0.00
                                0.00      0.00      0.00

     XDM     stress (kbar)      0.00      0.00      0.00
                                0.00      0.00      0.00
                                0.00      0.00      0.00

     dft-nl  stress (kbar)      0.00      0.00      0.00
                                0.00      0.00      0.00
                                0.00      0.00      0.00

     TS-vdW  stress (kbar)      0.00      0.00      0.00
                                0.00      0.00      0.00
                                0.00      0.00      0.00

     MDB     stress (kbar)      0.00      0.00      0.00
                                0.00      0.00      0.00
                                0.00      0.00      0.00

     3D-RISM stress (kbar)      0.00      0.00      0.00
                                0.00      0.00      0.00
                                0.00      0.00      0.00

     Writing all to output data dir ./YBCO.vc-relax/YBCO.vc-relax.save/

     General routines

     Parallel routines

     Hubbard U routines
                                        0.00s GPU  (      14 calls)

   This run was terminated on:   3: 5:43  14Dec2023

   JOB DONE.