     Program PWSCF v.7.2 starts on  1Jan2024 at 21: 6:46

     Waiting for input...
     Reading input from standard input
Warning: card &CELL ignored
Warning: card / ignored

     Current dimensions of program PWSCF are:
     Max number of different atomic species (ntypx) = 10
     Max number of k-points (npk) =  40000
     Max angular momentum in pseudopotentials (lmaxx) =  4
     Found identity + ( -0.5000 -0.5000  0.0000) symmetry
     This is a supercell, fractional translations are disabled

     R & G space division:  proc/nbgrp/npool/nimage =       4
     Subspace diagonalization in iterative solution of the eigenvalue problem:
     one sub-group per band group will be used

     Using Slab Decomposition

     bravais-lattice index     =            6
     lattice parameter (alat)  =      14.3459  a.u.
     unit-cell volume          =    4502.1906 (a.u.)^3
     number of atoms/cell      =           48
     number of atomic types    =            6
     number of electrons       =       496.00
     number of Kohn-Sham states=          298
     kinetic-energy cutoff     =      60.0000  Ry
     charge density cutoff     =     540.0000  Ry
     scf convergence threshold =      1.0E-08
     mixing beta               =       0.1000
     number of iterations used =            8  plain     mixing
     Exchange-correlation= SLA  PZ   NOGX NOGC
                           (   1   1   0   0   0   0   0)
     Hubbard projectors: ortho-atomic
     Hubbard parameters of DFT+U (Dudarev formulation) in eV:
     U(Cu1-3d) =  2.5000
     U(Cu2-3d) =  2.5000

     Internal variables: lda_plus_u = T, lda_plus_u_kind = 0

     celldm(1)=  14.345919  celldm(2)=   0.000000  celldm(3)=   1.524891
     celldm(4)=   0.000000  celldm(5)=   0.000000  celldm(6)=   0.000000

     crystal axes: (cart. coord. in units of alat)
               a(1) = (   1.000000   0.000000   0.000000 )
               a(2) = (   0.000000   1.000000   0.000000 )
               a(3) = (   0.000000   0.000000   1.524891 )

     reciprocal axes: (cart. coord. in units 2 pi/alat)
               b(1) = (  1.000000  0.000000  0.000000 )
               b(2) = (  0.000000  1.000000  0.000000 )
               b(3) = (  0.000000  0.000000  0.655785 )

     PseudoPot. # 1 for Y  read from file:
     ~/q-e/pseudo/gbrv_lda/y_lda_v1.4.uspp.F.UPF
     MD5 check sum: Not computed, couldn't open file
     Pseudo is Ultrasoft + core correction, Zval = 11.0
     Generated by new atomic code, or converted to UPF format
     Using radial grid of  885 points,  6 beta functions with:
                l(1) =   0
                l(2) =   0
                l(3) =   1
                l(4) =   1
                l(5) =   2
                l(6) =   2
     Q(r) pseudized with  8 coefficients,  rinner =    1.200   1.200   1.200
                                                       1.200   1.200

     PseudoPot. # 2 for Ba read from file:
     ~/q-e/pseudo/gbrv_lda/ba_lda_v1.uspp.F.UPF
     MD5 check sum: Not computed, couldn't open file
     Pseudo is Ultrasoft + core correction, Zval = 10.0
     Generated by new atomic code, or converted to UPF format
     Using radial grid of  907 points,  7 beta functions with:
                l(1) =   0
                l(2) =   0
                l(3) =   1
                l(4) =   1
                l(5) =   2
                l(6) =   2
                l(7) =   3
     Q(r) pseudized with  6 coefficients,  rinner =    1.700   1.700   1.700
                                                       1.700   1.700   1.700
                                                       1.700

     PseudoPot. # 3 for Cu read from file:
     ~/q-e/pseudo/gbrv_lda/cu_lda_v1.2.uspp.F.UPF
     MD5 check sum: Not computed, couldn't open file
     Pseudo is Ultrasoft + core correction, Zval = 19.0
     Generated by new atomic code, or converted to UPF format
     Using radial grid of  867 points,  6 beta functions with:
                l(1) =   0
                l(2) =   0
                l(3) =   1
                l(4) =   1
                l(5) =   2
                l(6) =   2
     Q(r) pseudized with  8 coefficients,  rinner =    1.150   1.150   1.150
                                                       1.150   1.150

[...]

     PseudoPot. # 5 for Cu read from file:
     ~/q-e/pseudo/gbrv_lda/cu_lda_v1.2.uspp.F.UPF
     MD5 check sum: Not computed, couldn't open file
     Pseudo is Ultrasoft + core correction, Zval = 19.0
     Generated by new atomic code, or converted to UPF format
     Using radial grid of  867 points,  6 beta functions with:
                l(1) =   0
                l(2) =   0
                l(3) =   1
                l(4) =   1
                l(5) =   2
                l(6) =   2
     Q(r) pseudized with  8 coefficients,  rinner =    1.150   1.150   1.150
                                                       1.150   1.150

     PseudoPot. # 6 for O  read from file:
     ~/q-e/pseudo/gbrv_lda/o_lda_v1.2.uspp.F.UPF
     MD5 check sum: Not computed, couldn't open file
     Pseudo is Ultrasoft + core correction, Zval =  6.0
     Generated by new atomic code, or converted to UPF format
     Using radial grid of  737 points,  5 beta functions with:
                l(1) =   0
                l(2) =   0
                l(3) =   1
                l(4) =   1
                l(5) =   2
     Q(r) pseudized with  8 coefficients,  rinner =    0.900   0.900   0.900
                                                       0.900   0.900

     atomic species   valence    mass     pseudopotential
     Y                11.00    88.90584     Y ( 1.00)
     Ba               10.00   137.32700     Ba( 1.00)
     Cu               19.00    63.54600     Cu( 1.00)
     Cu1              19.00    63.54600     Cu( 1.00)
     Cu2              19.00    63.54600     Cu( 1.00)
     O                 6.00    15.99900     O ( 1.00)

     Starting magnetic structure
     atomic species   magnetization
     Y               0.000
     Ba              0.000
     Cu              0.000
     Cu1             0.100
     Cu2            -0.100
     O               0.000

      8 Sym. Ops. (no inversion) found

                                    s                        frac. trans.

      isym =  1     identity

 cryst.   s( 1) = (     1          0          0      )
                  (     0          1          0      )
                  (     0          0          1      )

 cart.    s( 1) = (  1.0000000  0.0000000  0.0000000 )
                  (  0.0000000  1.0000000  0.0000000 )
                  (  0.0000000  0.0000000  1.0000000 )

      isym =  2     180 deg rotation - cart. axis [0,0,1]

[...]

      isym =  4      90 deg rotation - cart. axis [0,0,1]

[...]

      isym =  5     inv. 180 deg rotation - cart. axis [0,1,0]

[...]

      isym =  8     inv. 180 deg rotation - cart. axis [1,-1,0]

 cryst.   s( 8) = (     0          1          0      )
                  (     1          0          0      )
                  (     0          0          1      )

 cart.    s( 8) = (  0.0000000  1.0000000  0.0000000 )
                  (  1.0000000  0.0000000  0.0000000 )
                  (  0.0000000  0.0000000  1.0000000 )

     point group C_4v (4mm)
     there are  5 classes
     the character table:

       E     2C4   C2    2s_v  2s_d
A_1    1.00  1.00  1.00  1.00  1.00
A_2    1.00  1.00  1.00 -1.00 -1.00
B_1    1.00 -1.00  1.00  1.00 -1.00
B_2    1.00 -1.00  1.00 -1.00  1.00
E      2.00  0.00 -2.00  0.00  0.00

     the symmetry operations in each class and the name of the first element:

     E        1
          identity
     2C4      3    4
           90 deg rotation - cart. axis [0,0,-1]
     C2       2
          180 deg rotation - cart. axis [0,0,1]
     2s_v     5    6
          inv. 180 deg rotation - cart. axis [0,1,0]
     2s_d     7    8
          inv. 180 deg rotation - cart. axis [1,1,0]

   Cartesian axes

     site n.     atom                  positions (alat units)
         1        Y      tau(   1) = (   0.2500000   0.2500000   0.7624455  )
         2        Y      tau(   2) = (   0.2500000   0.7500000   0.7624455  )
         3        Y      tau(   3) = (   0.7500000   0.2500000   0.7624455  )
         4        Y      tau(   4) = (   0.7500000   0.7500000   0.7624455  )
         5        Ba     tau(   5) = (   0.2500000   0.2500000   0.2966571  )
         6        Ba     tau(   6) = (   0.2500000   0.2500000   1.2282339  )
         7        Ba     tau(   7) = (   0.2500000   0.7500000   0.2966571  )
         8        Ba     tau(   8) = (   0.2500000   0.7500000   1.2282339  )
         9        Ba     tau(   9) = (   0.7500000   0.2500000   0.2966571  )
        10        Ba     tau(  10) = (   0.7500000   0.2500000   1.2282339  )
        11        Ba     tau(  11) = (   0.7500000   0.7500000   0.2966571  )
        12        Ba     tau(  12) = (   0.7500000   0.7500000   1.2282339  )
        13        Cu     tau(  13) = (   0.0000000   0.0000000   0.0000000  )
        14        Cu1    tau(  14) = (   0.0000000   0.0000000   0.5526369  )
        15        Cu2    tau(  15) = (   0.0000000   0.0000000   0.9722541  )
        16        Cu     tau(  16) = (   0.0000000   0.5000000   0.0000000  )
        17        Cu2    tau(  17) = (   0.0000000   0.5000000   0.5526369  )
        18        Cu1    tau(  18) = (   0.0000000   0.5000000   0.9722541  )
        19        Cu     tau(  19) = (   0.5000000   0.0000000   0.0000000  )
        20        Cu2    tau(  20) = (   0.5000000   0.0000000   0.5526369  )
        21        Cu1    tau(  21) = (   0.5000000   0.0000000   0.9722541  )
        22        Cu     tau(  22) = (   0.5000000   0.5000000   0.0000000  )
        23        Cu1    tau(  23) = (   0.5000000   0.5000000   0.5526369  )
        24        Cu2    tau(  24) = (   0.5000000   0.5000000   0.9722541  )
        25        O      tau(  25) = (   0.0000000   0.0000000   0.2314064  )
        26        O      tau(  26) = (   0.0000000   0.0000000   1.2934846  )
        27        O      tau(  27) = (   0.5000000   0.0000000   0.2314064  )
        28        O      tau(  28) = (   0.5000000   0.0000000   1.2934846  )
        29        O      tau(  29) = (   0.0000000   0.5000000   0.2314064  )
        30        O      tau(  30) = (   0.0000000   0.5000000   1.2934846  )
        31        O      tau(  31) = (   0.5000000   0.5000000   0.2314064  )
        32        O      tau(  32) = (   0.5000000   0.5000000   1.2934846  )
        33        O      tau(  33) = (   0.2500000   0.0000000   0.5769788  )
        34        O      tau(  34) = (   0.2500000   0.0000000   0.9479122  )
        35        O      tau(  35) = (   0.2500000   0.5000000   0.5769788  )
        36        O      tau(  36) = (   0.2500000   0.5000000   0.9479122  )
        37        O      tau(  37) = (   0.7500000   0.0000000   0.5769788  )
        38        O      tau(  38) = (   0.7500000   0.0000000   0.9479122  )
        39        O      tau(  39) = (   0.7500000   0.5000000   0.5769788  )
        40        O      tau(  40) = (   0.7500000   0.5000000   0.9479122  )
        41        O      tau(  41) = (   0.0000000   0.2500000   0.5769788  )
[...]
      -0.000  0.980 -0.000  0.000  0.000
      -0.000 -0.000  0.980  0.000  0.000
       0.000  0.000  0.000  0.594 -0.000
       0.000  0.000  0.000 -0.000  0.985
     ------------------------ ATOM   24 ------------------------
     Tr[ns( 24)] (up, down, total) =   4.47695  4.80142  9.27836
     Atomic magnetic moment for atom  24 =  -0.32447
     SPIN  1
     eigenvalues:
       0.594  0.939  0.980  0.980  0.985
     eigenvectors (columns):
      -0.000  1.000 -0.000 -0.000  0.000
      -0.000  0.000  0.347  0.938  0.000
      -0.000  0.000  0.938 -0.347  0.000
       1.000  0.000  0.000  0.000 -0.000
       0.000 -0.000 -0.000 -0.000  1.000
     occupation matrix ns (before diag.):
       0.939 -0.000 -0.000  0.000  0.000
      -0.000  0.980 -0.000  0.000  0.000
      -0.000 -0.000  0.980  0.000  0.000
       0.000  0.000  0.000  0.594 -0.000
       0.000  0.000  0.000 -0.000  0.985
     SPIN  2
     eigenvalues:
       0.900  0.951  0.982  0.982  0.987
     eigenvectors (columns):
      -0.000  1.000 -0.000 -0.000  0.000
      -0.000  0.000  0.347  0.938  0.000
      -0.000  0.000  0.938 -0.347  0.000
       1.000  0.000  0.000  0.000 -0.000
       0.000 -0.000 -0.000 -0.000  1.000
     occupation matrix ns (before diag.):
       0.951 -0.000 -0.000  0.000  0.000
      -0.000  0.982 -0.000  0.000  0.000
      -0.000 -0.000  0.982  0.000  0.000
       0.000  0.000  0.000  0.900 -0.000
       0.000  0.000  0.000 -0.000  0.987

     Number of occupied Hubbard levels =   74.2269

     negative rho (up, down):  3.565E-01 3.565E-01

     HUBBARD ENERGY =    0.3958  (Ry)

     Magnetic moment per site  (integrated on atomic sphere of radius R)
     atom   1 (R=0.128)  charge=  7.5225  magn= -0.0000
     atom   2 (R=0.128)  charge=  7.5225  magn= -0.0000
     atom   3 (R=0.128)  charge=  7.5225  magn= -0.0000
     atom   4 (R=0.128)  charge=  7.5225  magn= -0.0000
     atom   5 (R=0.148)  charge=  6.5835  magn= -0.0000
     atom   6 (R=0.148)  charge=  6.5835  magn= -0.0000
     atom   7 (R=0.148)  charge=  6.5835  magn= -0.0000
     atom   8 (R=0.148)  charge=  6.5835  magn= -0.0000
     atom   9 (R=0.148)  charge=  6.5835  magn= -0.0000
     atom  10 (R=0.148)  charge=  6.5835  magn= -0.0000
     atom  11 (R=0.148)  charge=  6.5835  magn= -0.0000
     atom  12 (R=0.148)  charge=  6.5835  magn= -0.0000
     atom  13 (R=0.095)  charge= 15.9201  magn=  0.0001
     atom  14 (R=0.104)  charge= 16.3579  magn=  0.3259
     atom  15 (R=0.104)  charge= 16.3579  magn= -0.3258
     atom  16 (R=0.095)  charge= 15.9201  magn= -0.0002
     atom  17 (R=0.104)  charge= 16.3579  magn= -0.3259
     atom  18 (R=0.104)  charge= 16.3579  magn=  0.3258
     atom  19 (R=0.095)  charge= 15.9201  magn= -0.0002
     atom  20 (R=0.104)  charge= 16.3579  magn= -0.3259
     atom  21 (R=0.104)  charge= 16.3579  magn=  0.3258
     atom  22 (R=0.095)  charge= 15.9201  magn=  0.0001
     atom  23 (R=0.104)  charge= 16.3579  magn=  0.3259
     atom  24 (R=0.104)  charge= 16.3579  magn= -0.3258
     atom  25 (R=0.095)  charge=  4.8033  magn= -0.0019
     atom  26 (R=0.095)  charge=  4.8033  magn=  0.0020
     atom  27 (R=0.095)  charge=  4.8033  magn=  0.0019
     atom  28 (R=0.095)  charge=  4.8033  magn= -0.0020
     atom  29 (R=0.095)  charge=  4.8033  magn=  0.0019
     atom  30 (R=0.095)  charge=  4.8033  magn= -0.0020
     atom  31 (R=0.095)  charge=  4.8033  magn= -0.0019
     atom  32 (R=0.095)  charge=  4.8033  magn=  0.0020
     atom  33 (R=0.095)  charge=  4.8517  magn=  0.0000
     atom  34 (R=0.095)  charge=  4.8517  magn= -0.0000
     atom  35 (R=0.095)  charge=  4.8517  magn=  0.0000
     atom  36 (R=0.095)  charge=  4.8517  magn= -0.0000
     atom  37 (R=0.095)  charge=  4.8517  magn=  0.0000
     atom  38 (R=0.095)  charge=  4.8517  magn= -0.0000
     atom  39 (R=0.095)  charge=  4.8517  magn=  0.0000
     atom  40 (R=0.095)  charge=  4.8517  magn= -0.0000
     atom  41 (R=0.095)  charge=  4.8517  magn=  0.0000
     atom  42 (R=0.095)  charge=  4.8517  magn= -0.0000
     atom  43 (R=0.095)  charge=  4.8517  magn=  0.0000
     atom  44 (R=0.095)  charge=  4.8517  magn= -0.0000
     atom  45 (R=0.095)  charge=  4.8517  magn=  0.0000
     atom  46 (R=0.095)  charge=  4.8517  magn= -0.0000
     atom  47 (R=0.095)  charge=  4.8517  magn=  0.0000
     atom  48 (R=0.095)  charge=  4.8517  magn= -0.0000

     End of self-consistent calculation

 ------ SPIN UP ------------

          k = 0.0000 0.0000 0.0000 ( 35361 PWs)   bands (ev):

  -100.5699-100.5699-100.5696-100.5696-100.1559-100.1559-100.1558-100.1558
  -100.0798-100.0798-100.0796-100.0796 -58.6122 -58.6122 -58.6122 -58.6122
   -58.6119 -58.6119 -58.6119 -58.6119 -58.2027 -58.2027 -58.2026 -58.2026
   -58.0520 -58.0520 -58.0520 -58.0520 -58.0518 -58.0518 -58.0518 -58.0518
   -58.0231 -58.0231 -58.0229 -58.0229 -57.9065 -57.9065 -57.9065 -57.9065
   -57.9063 -57.9063 -57.9063 -57.9063 -57.7448 -57.7448 -57.7446 -57.7446
   -29.9623 -29.9444 -29.9444 -29.9270 -15.3414 -15.3345 -15.1950 -15.1950
   -15.1898 -15.1898 -15.0826 -15.0772 -10.7771 -10.7771 -10.7600 -10.7068
   -10.7068 -10.4472 -10.4472 -10.1765 -10.0450 -10.0450 -10.0206 -10.0206
    -7.5860  -6.8718  -6.8718  -6.6900  -6.6900  -6.5884  -6.5883  -6.4976
    -6.4976  -6.4043  -6.2652  -6.2345  -6.1662  -6.1380  -6.1379  -6.0311
    -6.0311  -5.9578  -5.9247  -5.9247  -5.8907  -5.8273  -5.8273  -5.8077
    -1.0765  -1.0765  -1.0634  -1.0634  -0.6898  -0.6752  -0.6694  -0.6694
    -0.4975  -0.4861  -0.4861  -0.4455  -0.3380  -0.3380  -0.2465  -0.2465
    -0.1706  -0.1706  -0.1672  -0.1672   0.0842   0.0842   0.0923   0.0923
     3.1628   3.7861   4.2218   4.2221   4.6296   4.6296   4.8235   4.9175
     4.9660   5.5553   5.5555   5.5555   5.5589   5.6133   5.6472   5.6472
     5.6861   5.7036   5.7036   5.7040   5.7040   5.9329   5.9329   6.0437
     6.0437   6.2471   6.2471   6.2714   6.2715   6.3714   6.3714   6.5567
     6.5567   6.6387   6.6387   6.8657   6.9137   6.9137   6.9203   6.9203
     7.0297   7.0557   7.0889   7.0889   7.1681   7.2049   7.2049   7.2105
     7.2704   7.2704   7.4834   7.4834   7.5125   7.5125   7.5164   7.5164
     7.6193   7.6439   7.6439   7.6707   7.6707   7.7577   7.7577   7.7915
     7.7915   7.8821   7.9508   7.9508   8.2460   8.2460   8.2726   8.2826
     8.2826   8.3120   8.3414   8.3414   8.3999   8.6538   8.6538   8.7378
     8.7378   8.7611   8.7817   8.8027   8.8027   8.8100   8.8100   8.9472
     8.9473   8.9723   8.9724   9.0050   9.0050   9.0343   9.0426   9.0694
     9.1552   9.1739   9.2067   9.2098   9.2099   9.2880   9.3441   9.3441
     9.3706   9.4636   9.4636   9.4935   9.5163   9.5163   9.6235   9.6235
     9.6335   9.6336   9.7639   9.8069   9.8069   9.8665   9.8668  10.0050
    10.1961  10.1961  10.2065  10.2065  10.6349  10.6349  10.7317  10.7317
    10.8815  10.8815  12.5241  12.5241  13.0987  13.1588  13.1720  13.5207
    13.6208  13.6208  13.7965  14.0058  14.1193  15.0634  15.1644  15.1644
    15.2936  15.3002  15.3002  15.7965  15.7965  15.8335  16.0002  16.2466
    16.2466  16.3623  16.3623  16.4638  16.4705  16.4706  16.4939  16.5328
    16.5328  16.5758  16.5758  16.6202  16.7056  16.7056  16.7618  17.0380
    17.1574  17.1574  17.6042  17.6043  17.7476  17.7476  17.9245  17.9245
    17.9550  17.9550

     occupation numbers
     1.0000   1.0000   1.0000   1.0000   1.0000   1.0000   1.0000   1.0000
     1.0000   1.0000   1.0000   1.0000   1.0000   1.0000   1.0000   1.0000
     1.0000   1.0000   1.0000   1.0000   1.0000   1.0000   1.0000   1.0000
     1.0000   1.0000   1.0000   1.0000   1.0000   1.0000   1.0000   1.0000
     1.0000   1.0000   1.0000   1.0000   1.0000   1.0000   1.0000   1.0000
     1.0000   1.0000   1.0000   1.0000   1.0000   1.0000   1.0000   1.0000
     1.0000   1.0000   1.0000   1.0000   1.0000   1.0000   1.0000   1.0000
     1.0000   1.0000   1.0000   1.0000   1.0000   1.0000   1.0000   1.0000
     1.0000   1.0000   1.0000   1.0000   1.0000   1.0000   1.0000   1.0000
     1.0000   1.0000   1.0000   1.0000   1.0000   1.0000   1.0000   1.0000
     1.0000   1.0000   1.0000   1.0000   1.0000   1.0000   1.0000   1.0000
     1.0000   1.0000   1.0000   1.0000   1.0000   1.0000   1.0000   1.0000
     1.0000   1.0000   1.0000   1.0000   1.0000   1.0000   1.0000   1.0000
     1.0000   1.0000   1.0000   1.0000   1.0000   1.0000   1.0000   1.0000
     1.0000   1.0000   1.0000   1.0000   1.0000   1.0000   1.0000   1.0000
     1.0000   1.0000   1.0000   1.0000   1.0000   1.0000   1.0000   1.0000
     1.0000   1.0000   1.0000   1.0000   1.0000   1.0000   1.0000   1.0000
     1.0000   1.0000   1.0000   1.0000   1.0000   1.0000   1.0000   1.0000
     1.0000   1.0000   1.0000   1.0000   1.0000   1.0000   1.0000   1.0000
     1.0000   1.0000   1.0000   1.0000   1.0000   1.0000   1.0000   1.0000
     1.0000   1.0000   1.0000   1.0000   1.0000   1.0000   1.0000   1.0000
     1.0000   1.0000   1.0000   1.0000   1.0000   1.0000   1.0000   1.0000
     1.0000   1.0000   1.0000   1.0000   1.0000   1.0000   1.0000   1.0000
     1.0000   1.0000   1.0000   1.0000   1.0000   1.0000   1.0000   1.0000
     1.0000   1.0000   1.0000   1.0000   1.0000   1.0000   1.0000   1.0000
     1.0000   1.0000   1.0000   1.0000   1.0000   1.0000   1.0000   1.0000
     1.0000   1.0000   1.0000   1.0000   1.0000   1.0000   1.0000   1.0000
     1.0000   1.0000   1.0000   1.0000   1.0000   1.0000   1.0000   1.0000
     1.0000   1.0000   1.0000   1.0000   1.0000   1.0000   1.0000   1.0000
     1.0000   1.0000   1.0000   1.0000   1.0000   1.0000   1.0000   1.0000
     1.0000   1.0000   1.0000   1.0000   1.0347   1.0347   0.8393   0.8393
     0.0573   0.0572  -0.0000  -0.0000  -0.0000  -0.0000  -0.0000  -0.0000
    -0.0000  -0.0000  -0.0000  -0.0000  -0.0000  -0.0000  -0.0000  -0.0000
    -0.0000  -0.0000  -0.0000  -0.0000  -0.0000  -0.0000  -0.0000  -0.0000
    -0.0000  -0.0000  -0.0000  -0.0000  -0.0000  -0.0000  -0.0000  -0.0000
    -0.0000  -0.0000  -0.0000  -0.0000  -0.0000  -0.0000  -0.0000  -0.0000
    -0.0000  -0.0000  -0.0000  -0.0000  -0.0000  -0.0000  -0.0000  -0.0000
    -0.0000  -0.0000

[...]

 ------ SPIN DOWN ----------

[...]

          k = 0.0000 0.0000-0.3279 ( 35390 PWs)   bands (ev):

  -100.5700-100.5700-100.5695-100.5695-100.1560-100.1560-100.1558-100.1558
  -100.0798-100.0798-100.0797-100.0797 -58.6123 -58.6123 -58.6123 -58.6123
   -58.6118 -58.6118 -58.6118 -58.6118 -58.2028 -58.2028 -58.2026 -58.2026
   -58.0519 -58.0519 -58.0519 -58.0519 -58.0518 -58.0518 -58.0518 -58.0518
   -58.0232 -58.0232 -58.0229 -58.0229 -57.9066 -57.9066 -57.9066 -57.9066
   -57.9064 -57.9064 -57.9063 -57.9063 -57.7447 -57.7447 -57.7446 -57.7446
   -29.9623 -29.9444 -29.9444 -29.9270 -15.3444 -15.3315 -15.1972 -15.1972
   -15.1876 -15.1876 -15.0842 -15.0756 -10.7771 -10.7771 -10.7602 -10.7068
   -10.7068 -10.4472 -10.4472 -10.1765 -10.0450 -10.0450 -10.0206 -10.0206
    -7.5847  -6.9045  -6.9045  -6.6893  -6.6893  -6.4976  -6.4976  -6.4254
    -6.4253  -6.4056  -6.3552  -6.3552  -6.2652  -6.2344  -6.1659  -5.9578
    -5.9441  -5.9441  -5.9254  -5.9254  -5.8909  -5.8272  -5.8272  -5.8083
    -1.0815  -1.0815  -1.0584  -1.0584  -0.6298  -0.6298  -0.6226  -0.6197
    -0.5687  -0.5280  -0.5280  -0.5043  -0.3394  -0.3394  -0.2455  -0.2455
    -0.1749  -0.1749  -0.1629  -0.1629   0.0797   0.0797   0.0969   0.0969
     3.1793   3.7626   4.2254   4.2257   4.6281   4.6281   4.8533   4.9175
     4.9660   5.5312   5.5564   5.5564   5.5825   5.6203   5.6408   5.6408
     5.7020   5.7021   5.7110   5.7110   5.7169   5.9319   5.9319   6.0434
     6.0434   6.2460   6.2460   6.2730   6.2731   6.4700   6.4700   6.5607
     6.5607   6.6444   6.6444   6.8588   6.8667   6.8690   6.8691   6.9074
     6.9074   6.9564   7.0235   7.0235   7.0833   7.0833   7.1677   7.2109
     7.3250   7.3250   7.4809   7.4809   7.5123   7.5123   7.5131   7.5131
     7.6426   7.6426   7.6711   7.6711   7.7365   7.7365   7.7397   7.8160
     7.8160   7.9654   7.9654   8.2189   8.2682   8.2754   8.2754   8.3430
     8.3430   8.3962   8.3962   8.4145   8.6138   8.6138   8.6590   8.6714
     8.6714   8.7024   8.7617   8.8100   8.8825   8.8825   8.9312   8.9313
     8.9773   8.9909   8.9911   8.9950   9.0063   9.0063   9.0425   9.0465
     9.0465   9.0632   9.0632   9.0665   9.1552   9.1739   9.2104   9.2104
     9.3658   9.3658   9.3777   9.4984   9.5433   9.5434   9.6310   9.6310
     9.7033   9.7033   9.7639   9.8540   9.8544   9.9200   9.9200  10.0747
    10.0747  10.1360  10.2056  10.2056  10.6402  10.6402  10.7304  10.7304
    10.8468  10.8469  12.5783  12.5783  13.0987  13.1720  13.4689  13.6338
    13.6338  13.7746  13.8182  13.8847  14.0115  15.0877  15.1046  15.1046
    15.2077  15.2077  15.2736  15.6253  15.6564  15.7970  15.7970  16.0001
    16.0699  16.3435  16.3435  16.4445  16.4445  16.4794  16.4794  16.4899
    16.4899  16.5228  16.5228  16.5239  16.6873  16.6873  17.1420  17.1420
    17.1723  17.2071  17.2071  17.4191  17.4191  17.7141  17.9123  18.0938
    18.0939  18.2614

     occupation numbers
     1.0000   1.0000   1.0000   1.0000   1.0000   1.0000   1.0000   1.0000
     1.0000   1.0000   1.0000   1.0000   1.0000   1.0000   1.0000   1.0000
     1.0000   1.0000   1.0000   1.0000   1.0000   1.0000   1.0000   1.0000
     1.0000   1.0000   1.0000   1.0000   1.0000   1.0000   1.0000   1.0000
     1.0000   1.0000   1.0000   1.0000   1.0000   1.0000   1.0000   1.0000
     1.0000   1.0000   1.0000   1.0000   1.0000   1.0000   1.0000   1.0000
     1.0000   1.0000   1.0000   1.0000   1.0000   1.0000   1.0000   1.0000
     1.0000   1.0000   1.0000   1.0000   1.0000   1.0000   1.0000   1.0000
     1.0000   1.0000   1.0000   1.0000   1.0000   1.0000   1.0000   1.0000
     1.0000   1.0000   1.0000   1.0000   1.0000   1.0000   1.0000   1.0000
     1.0000   1.0000   1.0000   1.0000   1.0000   1.0000   1.0000   1.0000
     1.0000   1.0000   1.0000   1.0000   1.0000   1.0000   1.0000   1.0000
     1.0000   1.0000   1.0000   1.0000   1.0000   1.0000   1.0000   1.0000
     1.0000   1.0000   1.0000   1.0000   1.0000   1.0000   1.0000   1.0000
     1.0000   1.0000   1.0000   1.0000   1.0000   1.0000   1.0000   1.0000
     1.0000   1.0000   1.0000   1.0000   1.0000   1.0000   1.0000   1.0000
     1.0000   1.0000   1.0000   1.0000   1.0000   1.0000   1.0000   1.0000
     1.0000   1.0000   1.0000   1.0000   1.0000   1.0000   1.0000   1.0000
     1.0000   1.0000   1.0000   1.0000   1.0000   1.0000   1.0000   1.0000
     1.0000   1.0000   1.0000   1.0000   1.0000   1.0000   1.0000   1.0000
     1.0000   1.0000   1.0000   1.0000   1.0000   1.0000   1.0000   1.0000
     1.0000   1.0000   1.0000   1.0000   1.0000   1.0000   1.0000   1.0000
     1.0000   1.0000   1.0000   1.0000   1.0000   1.0000   1.0000   1.0000
     1.0000   1.0000   1.0000   1.0000   1.0000   1.0000   1.0000   1.0000
     1.0000   1.0000   1.0000   1.0000   1.0000   1.0000   1.0000   1.0000
     1.0000   1.0000   1.0000   1.0000   1.0000   1.0000   1.0000   1.0000
     1.0000   1.0000   1.0000   1.0000   1.0000   1.0000   1.0000   1.0000
     1.0000   1.0000   1.0000   1.0000   1.0000   1.0000   1.0000   1.0000
     1.0000   1.0000   1.0000   1.0000   1.0000   1.0000   1.0000   1.0000
     1.0000   1.0000   1.0000   1.0000   1.0000   1.0000   1.0000   1.0000
     1.0000   1.0000   1.0000   1.0000   1.0335   1.0335   0.8452   0.8452
     0.1902   0.1899  -0.0000  -0.0000  -0.0000  -0.0000  -0.0000  -0.0000
    -0.0000  -0.0000  -0.0000  -0.0000  -0.0000  -0.0000  -0.0000  -0.0000
    -0.0000  -0.0000  -0.0000  -0.0000  -0.0000  -0.0000  -0.0000  -0.0000
    -0.0000  -0.0000  -0.0000  -0.0000  -0.0000  -0.0000  -0.0000  -0.0000
    -0.0000  -0.0000  -0.0000  -0.0000  -0.0000  -0.0000  -0.0000  -0.0000
    -0.0000  -0.0000  -0.0000  -0.0000  -0.0000  -0.0000  -0.0000  -0.0000
    -0.0000  -0.0000

     the Fermi energy is    10.7925 ev

!    total energy              =   -6554.63928756 Ry
     estimated scf accuracy    <          9.3E-09 Ry
     smearing contrib. (-TS)   =      -0.00217457 Ry
     internal energy E=F+TS    =   -6554.63711298 Ry

     The total energy is F=E-TS. E is the sum of the following terms:
     one-electron contribution =   -5520.87151305 Ry
     hartree contribution      =    3038.79166797 Ry
     xc contribution           =    -965.50935525 Ry
     ewald contribution        =   -3107.44375877 Ry
     Hubbard energy            =       0.39584612 Ry

     total magnetization       =    -0.00 Bohr mag/cell
     absolute magnetization    =     3.59 Bohr mag/cell

     convergence has been achieved in  39 iterations

     Writing all to output data dir ./YBCO6/YBCO6.save/

     General routines

     Parallel routines

     Hubbard U routines

   This run was terminated on:  21:33: 0   1Jan2024

   JOB DONE.