     Program PWSCF v.7.2 starts on  1Jan2024 at 19:16:18

     Waiting for input...
     Reading input from standard input
Warning: card &CELL ignored
Warning: card / ignored

     Current dimensions of program PWSCF are:
     Max number of different atomic species (ntypx) = 10
     Max number of k-points (npk) =  40000
     Max angular momentum in pseudopotentials (lmaxx) =  4
     Found identity + ( -0.5000 -0.5000  0.0000) symmetry
     This is a supercell, fractional translations are disabled

     R & G space division:  proc/nbgrp/npool/nimage =       4
     Subspace diagonalization in iterative solution of the eigenvalue problem:
     one sub-group per band group will be used

     Using Slab Decomposition

     bravais-lattice index     =            6
     lattice parameter (alat)  =      14.3459  a.u.
     unit-cell volume          =    4502.1906 (a.u.)^3
     number of atoms/cell      =           48
     number of atomic types    =            6
     number of electrons       =       496.00
     number of Kohn-Sham states=          298
     kinetic-energy cutoff     =      60.0000  Ry
     charge density cutoff     =     540.0000  Ry
     scf convergence threshold =      1.0E-08
     mixing beta               =       0.1000
     number of iterations used =            8  plain     mixing
     Exchange-correlation= SLA  PZ   NOGX NOGC
                           (   1   1   0   0   0   0   0)
     Hubbard projectors: ortho-atomic
     Hubbard parameters of DFT+U (Dudarev formulation) in eV:
     U(Cu1-3d) =  2.5000
     U(Cu2-3d) =  2.5000

     Internal variables: lda_plus_u = T, lda_plus_u_kind = 0

     celldm(1)=  14.345919  celldm(2)=   0.000000  celldm(3)=   1.524891
     celldm(4)=   0.000000  celldm(5)=   0.000000  celldm(6)=   0.000000

     crystal axes: (cart. coord. in units of alat)
               a(1) = (   1.000000   0.000000   0.000000 )
               a(2) = (   0.000000   1.000000   0.000000 )
               a(3) = (   0.000000   0.000000   1.524891 )

     reciprocal axes: (cart. coord. in units 2 pi/alat)
               b(1) = (  1.000000  0.000000  0.000000 )
               b(2) = (  0.000000  1.000000  0.000000 )
               b(3) = (  0.000000  0.000000  0.655785 )

     PseudoPot. # 1 for Y  read from file:
     ~/q-e/pseudo/gbrv_lda/y_lda_v1.4.uspp.F.UPF
     MD5 check sum: Not computed, couldn't open file
     Pseudo is Ultrasoft + core correction, Zval = 11.0
     Generated by new atomic code, or converted to UPF format
     Using radial grid of  885 points,  6 beta functions with:
                l(1) =   0
                l(2) =   0
                l(3) =   1
                l(4) =   1
                l(5) =   2
                l(6) =   2
     Q(r) pseudized with  8 coefficients,  rinner =    1.200   1.200   1.200
                                                       1.200   1.200

     PseudoPot. # 2 for Ba read from file:
     ~/q-e/pseudo/gbrv_lda/ba_lda_v1.uspp.F.UPF
     MD5 check sum: Not computed, couldn't open file
     Pseudo is Ultrasoft + core correction, Zval = 10.0
     Generated by new atomic code, or converted to UPF format
     Using radial grid of  907 points,  7 beta functions with:
                l(1) =   0
                l(2) =   0
                l(3) =   1
                l(4) =   1
                l(5) =   2
                l(6) =   2
                l(7) =   3
     Q(r) pseudized with  6 coefficients,  rinner =    1.700   1.700   1.700
                                                       1.700   1.700   1.700
                                                       1.700

     PseudoPot. # 3 for Cu read from file:
     ~/q-e/pseudo/gbrv_lda/cu_lda_v1.2.uspp.F.UPF
     MD5 check sum: Not computed, couldn't open file
     Pseudo is Ultrasoft + core correction, Zval = 19.0
     Generated by new atomic code, or converted to UPF format
     Using radial grid of  867 points,  6 beta functions with:
                l(1) =   0
                l(2) =   0
                l(3) =   1
                l(4) =   1
                l(5) =   2
                l(6) =   2
     Q(r) pseudized with  8 coefficients,  rinner =    1.150   1.150   1.150
                                                       1.150   1.150

[...]

     PseudoPot. # 5 for Cu read from file:
     ~/q-e/pseudo/gbrv_lda/cu_lda_v1.2.uspp.F.UPF
     MD5 check sum: Not computed, couldn't open file
     Pseudo is Ultrasoft + core correction, Zval = 19.0
     Generated by new atomic code, or converted to UPF format
     Using radial grid of  867 points,  6 beta functions with:
                l(1) =   0
                l(2) =   0
                l(3) =   1
                l(4) =   1
                l(5) =   2
                l(6) =   2
     Q(r) pseudized with  8 coefficients,  rinner =    1.150   1.150   1.150
                                                       1.150   1.150

     PseudoPot. # 6 for O  read from file:
     ~/q-e/pseudo/gbrv_lda/o_lda_v1.2.uspp.F.UPF
     MD5 check sum: Not computed, couldn't open file
     Pseudo is Ultrasoft + core correction, Zval =  6.0
     Generated by new atomic code, or converted to UPF format
     Using radial grid of  737 points,  5 beta functions with:
                l(1) =   0
                l(2) =   0
                l(3) =   1
                l(4) =   1
                l(5) =   2
     Q(r) pseudized with  8 coefficients,  rinner =    0.900   0.900   0.900
                                                       0.900   0.900

     atomic species   valence    mass     pseudopotential
     Y                11.00    88.90584     Y ( 1.00)
     Ba               10.00   137.32700     Ba( 1.00)
     Cu               19.00    63.54600     Cu( 1.00)
     Cu1              19.00    63.54600     Cu( 1.00)
     Cu2              19.00    63.54600     Cu( 1.00)
     O                 6.00    15.99900     O ( 1.00)

     Starting magnetic structure
     atomic species   magnetization
     Y               0.000
     Ba              0.000
     Cu              0.000
     Cu1             0.100
     Cu2            -0.100
     O               0.000

     16 Sym. Ops., with inversion, found

                                    s                        frac. trans.

      isym =  1     identity

 cryst.   s( 1) = (     1          0          0      )
                  (     0          1          0      )
                  (     0          0          1      )

 cart.    s( 1) = (  1.0000000  0.0000000  0.0000000 )
                  (  0.0000000  1.0000000  0.0000000 )
                  (  0.0000000  0.0000000  1.0000000 )

      isym =  2     180 deg rotation - cart. axis [0,0,1]

[...]

      isym =  8      90 deg rotation - cart. axis [0,0,1]

[...]

      isym =  9     inversion

 cryst.   s( 9) = (    -1          0          0      )
                  (     0         -1          0      )
                  (     0          0         -1      )

 cart.    s( 9) = ( -1.0000000  0.0000000  0.0000000 )
                  (  0.0000000 -1.0000000  0.0000000 )
                  (  0.0000000  0.0000000 -1.0000000 )

      isym = 10     inv. 180 deg rotation - cart. axis [0,0,1]

 cryst.   s(10) = (     1          0          0      )
                  (     0          1          0      )
                  (     0          0         -1      )

 cart.    s(10) = (  1.0000000  0.0000000  0.0000000 )
                  (  0.0000000  1.0000000  0.0000000 )
                  (  0.0000000  0.0000000 -1.0000000 )

[...]

      isym = 16     inv.  90 deg rotation - cart. axis [0,0,1]

 cryst.   s(16) = (     0         -1          0      )
                  (     1          0          0      )
                  (     0          0         -1      )

 cart.    s(16) = (  0.0000000  1.0000000  0.0000000 )
                  ( -1.0000000  0.0000000  0.0000000 )
                  (  0.0000000  0.0000000 -1.0000000 )

     point group D_4h(4/mmm)
     there are 10 classes
     the character table:

       E     2C4   C2    2C2'  2C2'' i     2S4   s_h   2s_v  2s_d
A_1g   1.00  1.00  1.00  1.00  1.00  1.00  1.00  1.00  1.00  1.00
A_2g   1.00  1.00  1.00 -1.00 -1.00  1.00  1.00  1.00 -1.00 -1.00
B_1g   1.00 -1.00  1.00  1.00 -1.00  1.00 -1.00  1.00  1.00 -1.00
B_2g   1.00 -1.00  1.00 -1.00  1.00  1.00 -1.00  1.00 -1.00  1.00
E_g    2.00  0.00 -2.00  0.00  0.00  2.00  0.00 -2.00  0.00  0.00
A_1u   1.00  1.00  1.00  1.00  1.00 -1.00 -1.00 -1.00 -1.00 -1.00
A_2u   1.00  1.00  1.00 -1.00 -1.00 -1.00 -1.00 -1.00  1.00  1.00
B_1u   1.00 -1.00  1.00  1.00 -1.00 -1.00  1.00 -1.00 -1.00  1.00
B_2u   1.00 -1.00  1.00 -1.00  1.00 -1.00  1.00 -1.00  1.00 -1.00
E_u    2.00  0.00 -2.00  0.00  0.00 -2.00  0.00  2.00  0.00  0.00

     the symmetry operations in each class and the name of the first element:

     E        1
          identity
     2C4      7    8
           90 deg rotation - cart. axis [0,0,-1]
     C2       2
          180 deg rotation - cart. axis [0,0,1]
     2C2'     3    4
          180 deg rotation - cart. axis [0,1,0]
     2C2''    5    6
          180 deg rotation - cart. axis [1,1,0]
     i        9
          inversion
     2S4     15   16
          inv.  90 deg rotation - cart. axis [0,0,-1]
     s_h     10
          inv. 180 deg rotation - cart. axis [0,0,1]
     2s_v    11   12
          inv. 180 deg rotation - cart. axis [0,1,0]
     2s_d    13   14
          inv. 180 deg rotation - cart. axis [1,1,0]

   Cartesian axes

     site n.     atom                  positions (alat units)
         1        Y      tau(   1) = (   0.2500000   0.2500000   0.7624455  )
         2        Y      tau(   2) = (   0.2500000   0.7500000   0.7624455  )
         3        Y      tau(   3) = (   0.7499999   0.2500000   0.7624455  )
         4        Y      tau(   4) = (   0.7500000   0.7500000   0.7624455  )
         5        Ba     tau(   5) = (   0.2500000   0.2500000   0.2966571  )
         6        Ba     tau(   6) = (   0.2500000   0.2500000   1.2282339  )
         7        Ba     tau(   7) = (   0.2500000   0.7500000   0.2966571  )
         8        Ba     tau(   8) = (   0.2500000   0.7500000   1.2282339  )
         9        Ba     tau(   9) = (   0.7500000   0.2500000   0.2966571  )
        10        Ba     tau(  10) = (   0.7500000   0.2500000   1.2282339  )
        11        Ba     tau(  11) = (   0.7500000   0.7500000   0.2966571  )
        12        Ba     tau(  12) = (   0.7500000   0.7500000   1.2282339  )
        13        Cu     tau(  13) = (   0.0000000   0.0000000   0.0000000  )
        14        Cu1    tau(  14) = (   0.0000000   0.0000000   0.5526369  )
        15        Cu1    tau(  15) = (   0.0000000   0.0000000   0.9722541  )
        16        Cu     tau(  16) = (   0.0000000   0.5000000   0.0000000  )
        17        Cu2    tau(  17) = (   0.0000000   0.5000000   0.5526369  )
        18        Cu2    tau(  18) = (   0.0000000   0.5000000   0.9722541  )
        19        Cu     tau(  19) = (   0.5000000   0.0000000   0.0000000  )
        20        Cu2    tau(  20) = (   0.5000000   0.0000000   0.5526369  )
        21        Cu2    tau(  21) = (   0.5000000   0.0000000   0.9722541  )
        22        Cu     tau(  22) = (   0.5000000   0.5000000   0.0000000  )
[...]
      -0.000  0.979 -0.000  0.000  0.000
      -0.000 -0.000  0.979  0.000  0.000
       0.000  0.000  0.000  0.572 -0.000
       0.000  0.000  0.000 -0.000  0.984
     ------------------------ ATOM   24 ------------------------
     Tr[ns( 24)] (up, down, total) =   4.81719  4.46175  9.27894
     Atomic magnetic moment for atom  24 =   0.35544
     SPIN  1
     eigenvalues:
       0.919  0.949  0.982  0.982  0.987
     eigenvectors (columns):
      -0.000  1.000 -0.000 -0.000  0.000
      -0.000  0.000  0.322  0.947  0.000
      -0.000  0.000  0.947 -0.322  0.000
       1.000  0.000  0.000  0.000 -0.000
       0.000 -0.000 -0.000 -0.000  1.000
     occupation matrix ns (before diag.):
       0.949 -0.000 -0.000  0.000  0.000
      -0.000  0.982 -0.000  0.000  0.000
      -0.000 -0.000  0.982  0.000  0.000
       0.000  0.000  0.000  0.919 -0.000
       0.000  0.000  0.000 -0.000  0.987
     SPIN  2
     eigenvalues:
       0.572  0.947  0.979  0.979  0.984
     eigenvectors (columns):
      -0.000  1.000 -0.000 -0.000  0.000
      -0.000  0.000  0.294  0.956  0.000
      -0.000  0.000  0.956 -0.294  0.000
       1.000  0.000  0.000  0.000 -0.000
       0.000 -0.000 -0.000 -0.000  1.000
     occupation matrix ns (before diag.):
       0.947 -0.000 -0.000  0.000  0.000
      -0.000  0.979 -0.000  0.000  0.000
      -0.000 -0.000  0.979  0.000  0.000
       0.000  0.000  0.000  0.572 -0.000
       0.000  0.000  0.000 -0.000  0.984

     Number of occupied Hubbard levels =   74.2315

     negative rho (up, down):  3.564E-01 3.564E-01

     HUBBARD ENERGY =    0.3850  (Ry)

     Magnetic moment per site  (integrated on atomic sphere of radius R)
     atom   1 (R=0.128)  charge=  7.5227  magn=  0.0000
     atom   2 (R=0.128)  charge=  7.5227  magn=  0.0000
     atom   3 (R=0.128)  charge=  7.5227  magn=  0.0000
     atom   4 (R=0.128)  charge=  7.5227  magn=  0.0000
     atom   5 (R=0.148)  charge=  6.5825  magn= -0.0000
     atom   6 (R=0.148)  charge=  6.5825  magn= -0.0000
     atom   7 (R=0.148)  charge=  6.5825  magn= -0.0000
     atom   8 (R=0.148)  charge=  6.5825  magn= -0.0000
     atom   9 (R=0.148)  charge=  6.5825  magn= -0.0000
     atom  10 (R=0.148)  charge=  6.5825  magn= -0.0000
     atom  11 (R=0.148)  charge=  6.5825  magn= -0.0000
     atom  12 (R=0.148)  charge=  6.5825  magn= -0.0000
     atom  13 (R=0.095)  charge= 15.9160  magn= -0.0002
     atom  14 (R=0.104)  charge= 16.3597  magn=  0.3559
     atom  15 (R=0.104)  charge= 16.3597  magn=  0.3559
     atom  16 (R=0.095)  charge= 15.9160  magn=  0.0001
     atom  17 (R=0.104)  charge= 16.3597  magn= -0.3559
     atom  18 (R=0.104)  charge= 16.3597  magn= -0.3559
     atom  19 (R=0.095)  charge= 15.9160  magn=  0.0001
     atom  20 (R=0.104)  charge= 16.3597  magn= -0.3559
     atom  21 (R=0.104)  charge= 16.3597  magn= -0.3559
     atom  22 (R=0.095)  charge= 15.9160  magn= -0.0002
     atom  23 (R=0.104)  charge= 16.3597  magn=  0.3559
     atom  24 (R=0.104)  charge= 16.3597  magn=  0.3559
     atom  25 (R=0.095)  charge=  4.8019  magn= -0.0040
     atom  26 (R=0.095)  charge=  4.8019  magn= -0.0040
     atom  27 (R=0.095)  charge=  4.8019  magn=  0.0040
     atom  28 (R=0.095)  charge=  4.8019  magn=  0.0040
     atom  29 (R=0.095)  charge=  4.8019  magn=  0.0040
     atom  30 (R=0.095)  charge=  4.8019  magn=  0.0040
     atom  31 (R=0.095)  charge=  4.8019  magn= -0.0040
     atom  32 (R=0.095)  charge=  4.8019  magn= -0.0040
     atom  33 (R=0.095)  charge=  4.8529  magn= -0.0000
     atom  34 (R=0.095)  charge=  4.8529  magn= -0.0000
     atom  35 (R=0.095)  charge=  4.8529  magn= -0.0000
     atom  36 (R=0.095)  charge=  4.8529  magn= -0.0000
     atom  37 (R=0.095)  charge=  4.8529  magn= -0.0000
     atom  38 (R=0.095)  charge=  4.8529  magn= -0.0000
     atom  39 (R=0.095)  charge=  4.8529  magn= -0.0000
     atom  40 (R=0.095)  charge=  4.8529  magn= -0.0000
     atom  41 (R=0.095)  charge=  4.8529  magn= -0.0000
     atom  42 (R=0.095)  charge=  4.8529  magn= -0.0000
     atom  43 (R=0.095)  charge=  4.8529  magn= -0.0000
     atom  44 (R=0.095)  charge=  4.8529  magn= -0.0000
     atom  45 (R=0.095)  charge=  4.8529  magn= -0.0000
     atom  46 (R=0.095)  charge=  4.8529  magn= -0.0000
     atom  47 (R=0.095)  charge=  4.8529  magn= -0.0000
     atom  48 (R=0.095)  charge=  4.8529  magn= -0.0000

     End of self-consistent calculation

 ------ SPIN UP ------------

          k = 0.0000 0.0000 0.0000 ( 35361 PWs)   bands (ev):

  -100.4779-100.4779-100.4779-100.4779-100.3254-100.3254-100.3253-100.3253
   -99.9421 -99.9421 -99.9420 -99.9420 -58.5283 -58.5283 -58.5283 -58.5283
   -58.5282 -58.5282 -58.5282 -58.5282 -58.3750 -58.3750 -58.3746 -58.3746
   -58.0720 -58.0720 -58.0720 -58.0720 -58.0718 -58.0718 -58.0718 -58.0718
   -57.9149 -57.9149 -57.9132 -57.9132 -57.9084 -57.9084 -57.9084 -57.9084
   -57.9083 -57.9083 -57.9083 -57.9083 -57.6255 -57.6255 -57.6237 -57.6237
   -29.8799 -29.8620 -29.8620 -29.8446 -15.3777 -15.3706 -15.2312 -15.2312
   -15.2258 -15.2258 -15.1189 -15.1133 -10.6954 -10.6913 -10.6758 -10.6232
   -10.6232 -10.3634 -10.3634 -10.0933  -9.9628  -9.9628  -9.9397  -9.9372
    -7.4965  -6.8063  -6.7909  -6.6634  -6.6566  -6.5991  -6.5991  -6.4063
    -6.4063  -6.3282  -6.3163  -6.2589  -6.2111  -6.2025  -6.1719  -5.9823
    -5.9688  -5.9509  -5.8983  -5.8643  -5.8343  -5.8343  -5.7379  -5.7379
    -1.1135  -1.1135  -1.1007  -1.1007  -0.7146  -0.7025  -0.6962  -0.6962
    -0.5227  -0.5123  -0.5123  -0.4711  -0.3790  -0.3768  -0.2873  -0.2854
    -0.2085  -0.2085  -0.2049  -0.2049   0.0476   0.0477   0.0561   0.0563
     3.2545   3.8812   4.2385   4.3760   4.6513   4.8198   4.9071   5.0023
     5.0608   5.4845   5.5405   5.6339   5.6349   5.6447   5.6476   5.6476
     5.7192   5.7192   5.7324   5.7660   5.8867   6.0286   6.0286   6.1508
     6.1508   6.2446   6.3376   6.3376   6.3696   6.3696   6.4708   6.6373
     6.6373   6.7218   6.7218   6.8376   6.8376   6.9525   6.9906   6.9910
     7.0304   7.0413   7.0543   7.0801   7.1921   7.1921   7.2648   7.3275
     7.3463   7.3463   7.3931   7.3931   7.4032   7.4032   7.4760   7.4760
     7.7082   7.7277   7.7277   7.7539   7.7539   7.7609   7.7609   7.8490
     7.8579   7.9409   8.0372   8.0372   8.1771   8.2343   8.2654   8.3438
     8.3438   8.3670   8.3670   8.3755   8.4566   8.5892   8.5892   8.6115
     8.6588   8.6807   8.6807   8.6975   8.7441   8.7981   8.7986   8.8876
     8.8997   8.8997   8.9590   8.9990   9.1089   9.1089   9.1106   9.1740
     9.1917   9.2038   9.2593   9.2638   9.2653   9.3823   9.4043   9.4043
     9.4072   9.4128   9.4649   9.5448   9.5448   9.5942   9.6319   9.6379
     9.7108   9.7108   9.8035   9.8142   9.8142   9.8545   9.8749  10.0802
    10.0802  10.1554  10.1554  10.3667  10.5145  10.5145  10.6150  10.6150
    10.6833  11.2172  12.4531  12.4531  13.1800  13.2223  13.2955  13.5413
    13.5413  13.5697  13.7537  13.9777  14.0830  15.0253  15.0680  15.0738
    15.3300  15.3414  15.3414  15.8178  15.8823  15.8823  16.0841  16.2474
    16.2474  16.3389  16.3419  16.4543  16.4722  16.4722  16.4810  16.5058
    16.5391  16.5391  16.5788  16.6658  16.6987  16.6987  16.7622  17.0589
    17.1824  17.1847  17.5591  17.5594  17.7439  17.7439  17.9178  17.9189
    17.9306  17.9306

     occupation numbers
     1.0000   1.0000   1.0000   1.0000   1.0000   1.0000   1.0000   1.0000
     1.0000   1.0000   1.0000   1.0000   1.0000   1.0000   1.0000   1.0000
     1.0000   1.0000   1.0000   1.0000   1.0000   1.0000   1.0000   1.0000
     1.0000   1.0000   1.0000   1.0000   1.0000   1.0000   1.0000   1.0000
     1.0000   1.0000   1.0000   1.0000   1.0000   1.0000   1.0000   1.0000
     1.0000   1.0000   1.0000   1.0000   1.0000   1.0000   1.0000   1.0000
     1.0000   1.0000   1.0000   1.0000   1.0000   1.0000   1.0000   1.0000
     1.0000   1.0000   1.0000   1.0000   1.0000   1.0000   1.0000   1.0000
     1.0000   1.0000   1.0000   1.0000   1.0000   1.0000   1.0000   1.0000
     1.0000   1.0000   1.0000   1.0000   1.0000   1.0000   1.0000   1.0000
     1.0000   1.0000   1.0000   1.0000   1.0000   1.0000   1.0000   1.0000
     1.0000   1.0000   1.0000   1.0000   1.0000   1.0000   1.0000   1.0000
     1.0000   1.0000   1.0000   1.0000   1.0000   1.0000   1.0000   1.0000
     1.0000   1.0000   1.0000   1.0000   1.0000   1.0000   1.0000   1.0000
     1.0000   1.0000   1.0000   1.0000   1.0000   1.0000   1.0000   1.0000
     1.0000   1.0000   1.0000   1.0000   1.0000   1.0000   1.0000   1.0000
     1.0000   1.0000   1.0000   1.0000   1.0000   1.0000   1.0000   1.0000
     1.0000   1.0000   1.0000   1.0000   1.0000   1.0000   1.0000   1.0000
     1.0000   1.0000   1.0000   1.0000   1.0000   1.0000   1.0000   1.0000
     1.0000   1.0000   1.0000   1.0000   1.0000   1.0000   1.0000   1.0000
     1.0000   1.0000   1.0000   1.0000   1.0000   1.0000   1.0000   1.0000
     1.0000   1.0000   1.0000   1.0000   1.0000   1.0000   1.0000   1.0000
     1.0000   1.0000   1.0000   1.0000   1.0000   1.0000   1.0000   1.0000
     1.0000   1.0000   1.0000   1.0000   1.0000   1.0000   1.0000   1.0000
     1.0000   1.0000   1.0000   1.0000   1.0000   1.0000   1.0000   1.0000
     1.0000   1.0000   1.0000   1.0000   1.0000   1.0000   1.0000   1.0000
     1.0000   1.0000   1.0000   1.0000   1.0000   1.0000   1.0000   1.0000
     1.0000   1.0000   1.0000   1.0000   1.0000   1.0000   1.0000   1.0000
     1.0000   1.0000   1.0000   1.0000   1.0000   1.0000   1.0000   1.0000
     1.0000   1.0000   1.0000   1.0000   1.0000   1.0000   1.0000   1.0000
     1.0000   1.0000   1.0000   1.0042   1.0325   1.0325   0.7835   0.7835
     0.3809  -0.0000  -0.0000  -0.0000  -0.0000  -0.0000  -0.0000  -0.0000
    -0.0000  -0.0000  -0.0000  -0.0000  -0.0000  -0.0000  -0.0000  -0.0000
    -0.0000  -0.0000  -0.0000  -0.0000  -0.0000  -0.0000  -0.0000  -0.0000
    -0.0000  -0.0000  -0.0000  -0.0000  -0.0000  -0.0000  -0.0000  -0.0000
    -0.0000  -0.0000  -0.0000  -0.0000  -0.0000  -0.0000  -0.0000  -0.0000
    -0.0000  -0.0000  -0.0000  -0.0000  -0.0000  -0.0000  -0.0000  -0.0000
    -0.0000  -0.0000

[...]

 ------ SPIN DOWN ----------

[...]

          k = 0.0000 0.0000-0.3279 ( 35390 PWs)   bands (ev):

  -100.4780-100.4779-100.4779-100.4779-100.3255-100.3254-100.3253-100.3253
   -99.9421 -99.9421 -99.9420 -99.9420 -58.5284 -58.5284 -58.5284 -58.5284
   -58.5282 -58.5282 -58.5282 -58.5282 -58.3751 -58.3751 -58.3747 -58.3747
   -58.0721 -58.0721 -58.0720 -58.0720 -58.0718 -58.0718 -58.0718 -58.0718
   -57.9149 -57.9149 -57.9132 -57.9132 -57.9084 -57.9084 -57.9084 -57.9084
   -57.9083 -57.9083 -57.9083 -57.9083 -57.6255 -57.6255 -57.6237 -57.6237
   -29.8799 -29.8620 -29.8620 -29.8446 -15.3806 -15.3677 -15.2332 -15.2332
   -15.2237 -15.2237 -15.1204 -15.1118 -10.6954 -10.6913 -10.6760 -10.6232
   -10.6232 -10.3635 -10.3635 -10.0934  -9.9628  -9.9628  -9.9397  -9.9372
    -7.4951  -6.8668  -6.8541  -6.5984  -6.5984  -6.4732  -6.4620  -6.4063
    -6.4063  -6.3943  -6.3860  -6.3282  -6.3177  -6.2586  -6.1719  -5.9825
    -5.9153  -5.8990  -5.8986  -5.8643  -5.8351  -5.8351  -5.7378  -5.7378
    -1.1190  -1.1190  -1.0952  -1.0952  -0.6575  -0.6575  -0.6494  -0.6477
    -0.5918  -0.5532  -0.5532  -0.5292  -0.3807  -0.3788  -0.2860  -0.2838
    -0.2126  -0.2126  -0.2007  -0.2007   0.0433   0.0434   0.0605   0.0606
     3.2733   3.8534   4.2474   4.3687   4.6671   4.8072   4.9373   5.0023
     5.0608   5.5037   5.5519   5.6198   5.6379   5.6384   5.6489   5.6489
     5.7047   5.7047   5.7307   5.7948   5.8849   6.0271   6.0271   6.1492
     6.1492   6.2463   6.3335   6.3335   6.4728   6.5140   6.5140   6.6467
     6.6467   6.7547   6.7547   6.8119   6.8119   6.8591   6.8601   6.9385
     6.9385   6.9536   6.9665   6.9942   7.0886   7.1191   7.2652   7.3269
     7.3914   7.3914   7.3985   7.3985   7.4045   7.4045   7.4801   7.4801
     7.7459   7.7459   7.7679   7.7679   7.7838   7.8033   7.8090   7.8090
     7.8216   8.0074   8.0074   8.2439   8.3154   8.3334   8.3479   8.3479
     8.3657   8.3691   8.3691   8.3744   8.5995   8.5995   8.6107   8.6107
     8.6181   8.6620   8.6665   8.7948   8.7984   8.8008   8.8408   8.8456
     8.8875   8.9646   8.9858   8.9990   9.0285   9.0757   9.0757   9.0985
     9.1050   9.1050   9.1163   9.1724   9.2054   9.2638   9.2942   9.2942
     9.4584   9.4584   9.4681   9.4699   9.4792   9.5922   9.6297   9.6536
     9.7860   9.7860   9.8021   9.8545   9.9471   9.9471  10.0115  10.0115
    10.0259  10.0799  10.0799  10.2843  10.5217  10.5217  10.6123  10.6123
    10.6918  11.1799  12.5035  12.5035  13.2224  13.2955  13.5389  13.5553
    13.5553  13.7378  13.8370  13.8483  13.9686  15.1094  15.1125  15.1477
    15.1564  15.1564  15.2099  15.5979  15.6267  15.8829  15.8829  16.0840
    16.1383  16.3200  16.3245  16.3892  16.3892  16.4457  16.4457  16.4537
    16.4537  16.5019  16.5726  16.6463  16.6723  16.6723  17.1545  17.1620
    17.1742  17.2681  17.2681  17.3854  17.3861  17.7551  17.9543  18.0700
    18.0701  18.2315

     occupation numbers
     1.0000   1.0000   1.0000   1.0000   1.0000   1.0000   1.0000   1.0000
     1.0000   1.0000   1.0000   1.0000   1.0000   1.0000   1.0000   1.0000
     1.0000   1.0000   1.0000   1.0000   1.0000   1.0000   1.0000   1.0000
     1.0000   1.0000   1.0000   1.0000   1.0000   1.0000   1.0000   1.0000
     1.0000   1.0000   1.0000   1.0000   1.0000   1.0000   1.0000   1.0000
     1.0000   1.0000   1.0000   1.0000   1.0000   1.0000   1.0000   1.0000
     1.0000   1.0000   1.0000   1.0000   1.0000   1.0000   1.0000   1.0000
     1.0000   1.0000   1.0000   1.0000   1.0000   1.0000   1.0000   1.0000
     1.0000   1.0000   1.0000   1.0000   1.0000   1.0000   1.0000   1.0000
     1.0000   1.0000   1.0000   1.0000   1.0000   1.0000   1.0000   1.0000
     1.0000   1.0000   1.0000   1.0000   1.0000   1.0000   1.0000   1.0000
     1.0000   1.0000   1.0000   1.0000   1.0000   1.0000   1.0000   1.0000
     1.0000   1.0000   1.0000   1.0000   1.0000   1.0000   1.0000   1.0000
     1.0000   1.0000   1.0000   1.0000   1.0000   1.0000   1.0000   1.0000
     1.0000   1.0000   1.0000   1.0000   1.0000   1.0000   1.0000   1.0000
     1.0000   1.0000   1.0000   1.0000   1.0000   1.0000   1.0000   1.0000
     1.0000   1.0000   1.0000   1.0000   1.0000   1.0000   1.0000   1.0000
     1.0000   1.0000   1.0000   1.0000   1.0000   1.0000   1.0000   1.0000
     1.0000   1.0000   1.0000   1.0000   1.0000   1.0000   1.0000   1.0000
     1.0000   1.0000   1.0000   1.0000   1.0000   1.0000   1.0000   1.0000
     1.0000   1.0000   1.0000   1.0000   1.0000   1.0000   1.0000   1.0000
     1.0000   1.0000   1.0000   1.0000   1.0000   1.0000   1.0000   1.0000
     1.0000   1.0000   1.0000   1.0000   1.0000   1.0000   1.0000   1.0000
     1.0000   1.0000   1.0000   1.0000   1.0000   1.0000   1.0000   1.0000
     1.0000   1.0000   1.0000   1.0000   1.0000   1.0000   1.0000   1.0000
     1.0000   1.0000   1.0000   1.0000   1.0000   1.0000   1.0000   1.0000
     1.0000   1.0000   1.0000   1.0000   1.0000   1.0000   1.0000   1.0000
     1.0000   1.0000   1.0000   1.0000   1.0000   1.0000   1.0000   1.0000
     1.0000   1.0000   1.0000   1.0000   1.0000   1.0000   1.0000   1.0000
     1.0000   1.0000   1.0000   1.0000   1.0000   1.0000   1.0000   1.0000
     1.0000   1.0000   1.0000   1.0003   1.0292   1.0292   0.7969   0.7969
     0.3303  -0.0000  -0.0000  -0.0000  -0.0000  -0.0000  -0.0000  -0.0000
    -0.0000  -0.0000  -0.0000  -0.0000  -0.0000  -0.0000  -0.0000  -0.0000
    -0.0000  -0.0000  -0.0000  -0.0000  -0.0000  -0.0000  -0.0000  -0.0000
    -0.0000  -0.0000  -0.0000  -0.0000  -0.0000  -0.0000  -0.0000  -0.0000
    -0.0000  -0.0000  -0.0000  -0.0000  -0.0000  -0.0000  -0.0000  -0.0000
    -0.0000  -0.0000  -0.0000  -0.0000  -0.0000  -0.0000  -0.0000  -0.0000
    -0.0000  -0.0000

     the Fermi energy is    10.6639 ev

!    total energy              =   -6554.63006438 Ry
     estimated scf accuracy    <          9.1E-09 Ry
     smearing contrib. (-TS)   =      -0.00371823 Ry
     internal energy E=F+TS    =   -6554.62634615 Ry

     The total energy is F=E-TS. E is the sum of the following terms:
     one-electron contribution =   -5521.56959671 Ry
     hartree contribution      =    3039.52266150 Ry
     xc contribution           =    -965.52067716 Ry
     ewald contribution        =   -3107.44375877 Ry
     Hubbard energy            =       0.38502499 Ry

     total magnetization       =    -0.00 Bohr mag/cell
     absolute magnetization    =     4.06 Bohr mag/cell

     convergence has been achieved in  63 iterations

     Writing all to output data dir ./YBCO6/YBCO6.save/

     General routines

     Parallel routines

     Hubbard U routines

   This run was terminated on:  19:57:28   1Jan2024

   JOB DONE.