     Program PWSCF v.7.2 starts on  1Jan2024 at 22:49:19

     Waiting for input...
     Reading input from standard input
Warning: card &CELL ignored
Warning: card / ignored

     Current dimensions of program PWSCF are:
     Max number of different atomic species (ntypx) = 10
     Max number of k-points (npk) =  40000
     Max angular momentum in pseudopotentials (lmaxx) =  4
     Found identity + ( -0.5000 -0.5000  0.0000) symmetry
     This is a supercell, fractional translations are disabled

     R & G space division:  proc/nbgrp/npool/nimage =       4
     Subspace diagonalization in iterative solution of the eigenvalue problem:
     one sub-group per band group will be used

     Using Slab Decomposition

     bravais-lattice index     =            6
     lattice parameter (alat)  =      14.3459  a.u.
     unit-cell volume          =    4502.1906 (a.u.)^3
     number of atoms/cell      =           48
     number of atomic types    =            6
     number of electrons       =       496.00
     number of Kohn-Sham states=          298
     kinetic-energy cutoff     =      60.0000  Ry
     charge density cutoff     =     540.0000  Ry
     scf convergence threshold =      1.0E-08
     mixing beta               =       0.1000
     number of iterations used =            8  plain     mixing
     Exchange-correlation= SLA  PZ   NOGX NOGC
                           (   1   1   0   0   0   0   0)
     Hubbard projectors: ortho-atomic
     Hubbard parameters of DFT+U (Dudarev formulation) in eV:
     U(Cu1-3d) =  2.5000
     U(Cu2-3d) =  2.5000

     Internal variables: lda_plus_u = T, lda_plus_u_kind = 0

     celldm(1)=  14.345919  celldm(2)=   0.000000  celldm(3)=   1.524891
     celldm(4)=   0.000000  celldm(5)=   0.000000  celldm(6)=   0.000000

     crystal axes: (cart. coord. in units of alat)
               a(1) = (   1.000000   0.000000   0.000000 )
               a(2) = (   0.000000   1.000000   0.000000 )
               a(3) = (   0.000000   0.000000   1.524891 )

     reciprocal axes: (cart. coord. in units 2 pi/alat)
               b(1) = (  1.000000  0.000000  0.000000 )
               b(2) = (  0.000000  1.000000  0.000000 )
               b(3) = (  0.000000  0.000000  0.655785 )

     PseudoPot. # 1 for Y  read from file:
     ~/q-e/pseudo/gbrv_lda/y_lda_v1.4.uspp.F.UPF
     MD5 check sum: Not computed, couldn't open file
     Pseudo is Ultrasoft + core correction, Zval = 11.0
     Generated by new atomic code, or converted to UPF format
     Using radial grid of  885 points,  6 beta functions with:
                l(1) =   0
                l(2) =   0
                l(3) =   1
                l(4) =   1
                l(5) =   2
                l(6) =   2
     Q(r) pseudized with  8 coefficients,  rinner =    1.200   1.200   1.200
                                                       1.200   1.200

     PseudoPot. # 2 for Ba read from file:
     ~/q-e/pseudo/gbrv_lda/ba_lda_v1.uspp.F.UPF
     MD5 check sum: Not computed, couldn't open file
     Pseudo is Ultrasoft + core correction, Zval = 10.0
     Generated by new atomic code, or converted to UPF format
     Using radial grid of  907 points,  7 beta functions with:
                l(1) =   0
                l(2) =   0
                l(3) =   1
                l(4) =   1
                l(5) =   2
                l(6) =   2
                l(7) =   3
     Q(r) pseudized with  6 coefficients,  rinner =    1.700   1.700   1.700
                                                       1.700   1.700   1.700
                                                       1.700

     PseudoPot. # 3 for Cu read from file:
     ~/q-e/pseudo/gbrv_lda/cu_lda_v1.2.uspp.F.UPF
     MD5 check sum: Not computed, couldn't open file
     Pseudo is Ultrasoft + core correction, Zval = 19.0
     Generated by new atomic code, or converted to UPF format
     Using radial grid of  867 points,  6 beta functions with:
                l(1) =   0
                l(2) =   0
                l(3) =   1
                l(4) =   1
                l(5) =   2
                l(6) =   2
     Q(r) pseudized with  8 coefficients,  rinner =    1.150   1.150   1.150
                                                       1.150   1.150

[...]

     PseudoPot. # 5 for Cu read from file:
     ~/q-e/pseudo/gbrv_lda/cu_lda_v1.2.uspp.F.UPF
     MD5 check sum: Not computed, couldn't open file
     Pseudo is Ultrasoft + core correction, Zval = 19.0
     Generated by new atomic code, or converted to UPF format
     Using radial grid of  867 points,  6 beta functions with:
                l(1) =   0
                l(2) =   0
                l(3) =   1
                l(4) =   1
                l(5) =   2
                l(6) =   2
     Q(r) pseudized with  8 coefficients,  rinner =    1.150   1.150   1.150
                                                       1.150   1.150

     PseudoPot. # 6 for O  read from file:
     ~/q-e/pseudo/gbrv_lda/o_lda_v1.2.uspp.F.UPF
     MD5 check sum: Not computed, couldn't open file
     Pseudo is Ultrasoft + core correction, Zval =  6.0
     Generated by new atomic code, or converted to UPF format
     Using radial grid of  737 points,  5 beta functions with:
                l(1) =   0
                l(2) =   0
                l(3) =   1
                l(4) =   1
                l(5) =   2
     Q(r) pseudized with  8 coefficients,  rinner =    0.900   0.900   0.900
                                                       0.900   0.900

     atomic species   valence    mass     pseudopotential
     Y                11.00    88.90584     Y ( 1.00)
     Ba               10.00   137.32700     Ba( 1.00)
     Cu               19.00    63.54600     Cu( 1.00)
     Cu1              19.00    63.54600     Cu( 1.00)
     Cu2              19.00    63.54600     Cu( 1.00)
     O                 6.00    15.99900     O ( 1.00)

     Starting magnetic structure
     atomic species   magnetization
     Y               0.000
     Ba              0.000
     Cu              0.000
     Cu1             0.100
     Cu2            -0.100
     O               0.000

      8 Sym. Ops. (no inversion) found

                                    s                        frac. trans.

      isym =  1     identity

 cryst.   s( 1) = (     1          0          0      )
                  (     0          1          0      )
                  (     0          0          1      )

 cart.    s( 1) = (  1.0000000  0.0000000  0.0000000 )
                  (  0.0000000  1.0000000  0.0000000 )
                  (  0.0000000  0.0000000  1.0000000 )

      isym =  2     180 deg rotation - cart. axis [0,0,1]

[...]

      isym =  4      90 deg rotation - cart. axis [0,0,1]

[...]

      isym =  5     inv. 180 deg rotation - cart. axis [0,1,0]

[...]

      isym =  8     inv. 180 deg rotation - cart. axis [1,-1,0]

 cryst.   s( 8) = (     0          1          0      )
                  (     1          0          0      )
                  (     0          0          1      )

 cart.    s( 8) = (  0.0000000  1.0000000  0.0000000 )
                  (  1.0000000  0.0000000  0.0000000 )
                  (  0.0000000  0.0000000  1.0000000 )

     point group C_4v (4mm)
     there are  5 classes
     the character table:

       E     2C4   C2    2s_v  2s_d
A_1    1.00  1.00  1.00  1.00  1.00
A_2    1.00  1.00  1.00 -1.00 -1.00
B_1    1.00 -1.00  1.00  1.00 -1.00
B_2    1.00 -1.00  1.00 -1.00  1.00
E      2.00  0.00 -2.00  0.00  0.00

     the symmetry operations in each class and the name of the first element:

     E        1
          identity
     2C4      3    4
           90 deg rotation - cart. axis [0,0,-1]
     C2       2
          180 deg rotation - cart. axis [0,0,1]
     2s_v     5    6
          inv. 180 deg rotation - cart. axis [0,1,0]
     2s_d     7    8
          inv. 180 deg rotation - cart. axis [1,1,0]

   Cartesian axes

     site n.     atom                  positions (alat units)
         1        Y      tau(   1) = (   0.2500000   0.2500000   0.7624455  )
         2        Y      tau(   2) = (   0.2500000   0.7500000   0.7624455  )
         3        Y      tau(   3) = (   0.7500000   0.2500000   0.7624455  )
         4        Y      tau(   4) = (   0.7500000   0.7500000   0.7624455  )
         5        Ba     tau(   5) = (   0.2500000   0.2500000   0.2966571  )
         6        Ba     tau(   6) = (   0.2500000   0.2500000   1.2282339  )
         7        Ba     tau(   7) = (   0.2500000   0.7500000   0.2966571  )
         8        Ba     tau(   8) = (   0.2500000   0.7500000   1.2282339  )
         9        Ba     tau(   9) = (   0.7500000   0.2500000   0.2966571  )
        10        Ba     tau(  10) = (   0.7500000   0.2500000   1.2282339  )
        11        Ba     tau(  11) = (   0.7500000   0.7500000   0.2966571  )
        12        Ba     tau(  12) = (   0.7500000   0.7500000   1.2282339  )
        13        Cu     tau(  13) = (   0.0000000   0.0000000   0.0000000  )
        14        Cu1    tau(  14) = (   0.0000000   0.0000000   0.5526369  )
        15        Cu2    tau(  15) = (   0.0000000   0.0000000   0.9722541  )
        16        Cu     tau(  16) = (   0.0000000   0.5000000   0.0000000  )
        17        Cu2    tau(  17) = (   0.0000000   0.5000000   0.5526369  )
        18        Cu1    tau(  18) = (   0.0000000   0.5000000   0.9722541  )
        19        Cu     tau(  19) = (   0.5000000   0.0000000   0.0000000  )
        20        Cu2    tau(  20) = (   0.5000000   0.0000000   0.5526369  )
        21        Cu1    tau(  21) = (   0.5000000   0.0000000   0.9722541  )
        22        Cu     tau(  22) = (   0.5000000   0.5000000   0.0000000  )
        23        Cu1    tau(  23) = (   0.5000000   0.5000000   0.5526369  )
        24        Cu2    tau(  24) = (   0.5000000   0.5000000   0.9722541  )
        25        O      tau(  25) = (   0.0000000   0.0000000   0.2314064  )
        26        O      tau(  26) = (   0.0000000   0.0000000   1.2934846  )
        27        O      tau(  27) = (   0.5000000   0.0000000   0.2314064  )
        28        O      tau(  28) = (   0.5000000   0.0000000   1.2934846  )
        29        O      tau(  29) = (   0.0000000   0.5000000   0.2314064  )
        30        O      tau(  30) = (   0.0000000   0.5000000   1.2934846  )
        31        O      tau(  31) = (   0.5000000   0.5000000   0.2314064  )
        32        O      tau(  32) = (   0.5000000   0.5000000   1.2934846  )
        33        O      tau(  33) = (   0.2500000   0.0000000   0.5769788  )
        34        O      tau(  34) = (   0.2500000   0.0000000   0.9479122  )
        35        O      tau(  35) = (   0.2500000   0.5000000   0.5769788  )
        36        O      tau(  36) = (   0.2500000   0.5000000   0.9479122  )
        37        O      tau(  37) = (   0.7500000   0.0000000   0.5769788  )
        38        O      tau(  38) = (   0.7500000   0.0000000   0.9479122  )
        39        O      tau(  39) = (   0.7500000   0.5000000   0.5769788  )
        40        O      tau(  40) = (   0.7500000   0.5000000   0.9479122  )
        41        O      tau(  41) = (   0.0000000   0.2500000   0.5769788  )
[...]
     ------------------------ ATOM   24 ------------------------
     Tr[ns( 24)] (up, down, total) =   4.57426  4.72208  9.29634
     Atomic magnetic moment for atom  24 =  -0.14782
     SPIN  1
     eigenvalues:
       0.688  0.949  0.977  0.977  0.984
     eigenvectors (columns):
      -0.000  1.000 -0.000 -0.000  0.000
      -0.000  0.000  0.319  0.948  0.000
      -0.000  0.000  0.948 -0.319  0.000
       1.000  0.000  0.000  0.000 -0.000
       0.000 -0.000 -0.000 -0.000  1.000
     occupation matrix ns (before diag.):
       0.949 -0.000 -0.000  0.000  0.000
      -0.000  0.977 -0.000  0.000  0.000
      -0.000 -0.000  0.977  0.000  0.000
       0.000  0.000  0.000  0.688 -0.000
       0.000  0.000  0.000 -0.000  0.984
     SPIN  2
     eigenvalues:
       0.831  0.952  0.977  0.977  0.985
     eigenvectors (columns):
      -0.000  1.000 -0.000 -0.000  0.000
      -0.000  0.000  0.365  0.931  0.000
      -0.000  0.000  0.931 -0.365  0.000
       1.000  0.000  0.000  0.000 -0.000
       0.000 -0.000 -0.000 -0.000  1.000
     occupation matrix ns (before diag.):
       0.952 -0.000 -0.000  0.000  0.000
      -0.000  0.977 -0.000  0.000  0.000
      -0.000 -0.000  0.977  0.000  0.000
       0.000  0.000  0.000  0.831 -0.000
       0.000  0.000  0.000 -0.000  0.985

     Number of occupied Hubbard levels =   74.3706

     negative rho (up, down):  3.570E-01 3.570E-01

     HUBBARD ENERGY =    0.4190  (Ry)

     Magnetic moment per site  (integrated on atomic sphere of radius R)
     atom   1 (R=0.128)  charge=  7.5247  magn=  0.0000
     atom   2 (R=0.128)  charge=  7.5247  magn=  0.0000
     atom   3 (R=0.128)  charge=  7.5247  magn=  0.0000
     atom   4 (R=0.128)  charge=  7.5247  magn=  0.0000
     atom   5 (R=0.148)  charge=  6.5870  magn= -0.0000
     atom   6 (R=0.148)  charge=  6.5870  magn=  0.0000
     atom   7 (R=0.148)  charge=  6.5870  magn= -0.0000
     atom   8 (R=0.148)  charge=  6.5870  magn=  0.0000
     atom   9 (R=0.148)  charge=  6.5870  magn= -0.0000
     atom  10 (R=0.148)  charge=  6.5870  magn=  0.0000
     atom  11 (R=0.148)  charge=  6.5870  magn= -0.0000
     atom  12 (R=0.148)  charge=  6.5870  magn=  0.0000
     atom  13 (R=0.095)  charge= 15.9160  magn=  0.0000
     atom  14 (R=0.104)  charge= 16.3680  magn=  0.1531
     atom  15 (R=0.104)  charge= 16.3680  magn= -0.1530
     atom  16 (R=0.095)  charge= 15.9160  magn=  0.0000
     atom  17 (R=0.104)  charge= 16.3680  magn= -0.1530
     atom  18 (R=0.104)  charge= 16.3680  magn=  0.1528
     atom  19 (R=0.095)  charge= 15.9160  magn=  0.0000
     atom  20 (R=0.104)  charge= 16.3680  magn= -0.1530
     atom  21 (R=0.104)  charge= 16.3680  magn=  0.1528
     atom  22 (R=0.095)  charge= 15.9160  magn=  0.0000
     atom  23 (R=0.104)  charge= 16.3680  magn=  0.1531
     atom  24 (R=0.104)  charge= 16.3680  magn= -0.1530
     atom  25 (R=0.095)  charge=  4.8076  magn=  0.0008
     atom  26 (R=0.095)  charge=  4.8076  magn= -0.0008
     atom  27 (R=0.095)  charge=  4.8076  magn= -0.0008
     atom  28 (R=0.095)  charge=  4.8076  magn=  0.0008
     atom  29 (R=0.095)  charge=  4.8076  magn= -0.0008
     atom  30 (R=0.095)  charge=  4.8076  magn=  0.0008
     atom  31 (R=0.095)  charge=  4.8076  magn=  0.0008
     atom  32 (R=0.095)  charge=  4.8076  magn= -0.0008
     atom  33 (R=0.095)  charge=  4.8425  magn=  0.0000
     atom  34 (R=0.095)  charge=  4.8425  magn= -0.0000
     atom  35 (R=0.095)  charge=  4.8425  magn=  0.0000
     atom  36 (R=0.095)  charge=  4.8425  magn= -0.0000
     atom  37 (R=0.095)  charge=  4.8425  magn=  0.0000
     atom  38 (R=0.095)  charge=  4.8425  magn= -0.0000
     atom  39 (R=0.095)  charge=  4.8425  magn=  0.0000
     atom  40 (R=0.095)  charge=  4.8425  magn= -0.0000
     atom  41 (R=0.095)  charge=  4.8425  magn=  0.0000
     atom  42 (R=0.095)  charge=  4.8425  magn= -0.0000
     atom  43 (R=0.095)  charge=  4.8425  magn=  0.0000
     atom  44 (R=0.095)  charge=  4.8425  magn= -0.0000
     atom  45 (R=0.095)  charge=  4.8425  magn=  0.0000
     atom  46 (R=0.095)  charge=  4.8425  magn= -0.0000
     atom  47 (R=0.095)  charge=  4.8425  magn=  0.0000
     atom  48 (R=0.095)  charge=  4.8425  magn= -0.0000

     End of self-consistent calculation

 ------ SPIN UP ------------

          k = 0.0000 0.0000 0.0000 ( 35361 PWs)   bands (ev):

  -100.5224-100.5224-100.5223-100.5223-100.2929-100.2929-100.2928-100.2928
   -99.9703 -99.9703 -99.9703 -99.9703 -58.5464 -58.5464 -58.5464 -58.5464
   -58.5463 -58.5463 -58.5463 -58.5463 -58.2818 -58.2818 -58.2818 -58.2818
   -58.2818 -58.2818 -58.2818 -58.2818 -58.0390 -58.0390 -58.0389 -58.0389
   -58.0303 -58.0303 -58.0303 -58.0303 -57.9128 -57.9128 -57.9128 -57.9128
   -57.7114 -57.7114 -57.7114 -57.7114 -57.7112 -57.7112 -57.7112 -57.7112
   -30.1990 -30.1810 -30.1810 -30.1636 -15.2427 -15.2368 -15.0965 -15.0965
   -15.0919 -15.0919 -14.9835 -14.9785 -11.0274 -11.0274 -11.0052 -10.9565
   -10.9565 -10.6866 -10.6866 -10.4098 -10.2852 -10.2852 -10.2607 -10.2607
    -7.8854  -7.1553  -7.1553  -6.9997  -6.9997  -6.8102  -6.8102  -6.6918
    -6.5816  -6.5406  -6.5406  -6.2760  -6.2301  -6.2301  -6.1523  -6.1523
    -6.1290  -6.1290  -6.0013  -5.9400  -5.9400  -5.9355  -5.6568  -5.5762
    -0.9809  -0.9809  -0.9670  -0.9670  -0.6198  -0.5965  -0.5930  -0.5930
    -0.4250  -0.4116  -0.4116  -0.3709  -0.2404  -0.2403  -0.1466  -0.1466
    -0.0719  -0.0719  -0.0695  -0.0695   0.1796   0.1796   0.1865   0.1865
     2.9028   3.5221   4.0793   4.0794   4.3071   4.3072   4.6181   4.7411
     4.7958   5.2763   5.2763   5.3687   5.4555   5.4765   5.4765   5.5073
     5.5074   5.6630   5.6630   5.7395   5.7726   5.7878   5.7878   5.8725
     5.8725   6.0830   6.0830   6.0889   6.0889   6.3267   6.3267   6.3766
     6.3766   6.4108   6.4108   6.5974   6.7260   6.7260   6.9981   6.9981
     7.0618   7.0832   7.0832   7.1138   7.1202   7.1545   7.1685   7.1686
     7.3183   7.3183   7.4775   7.4775   7.5282   7.5282   7.5441   7.5441
     7.5516   7.5524   7.5525   7.6590   7.7174   7.7174   7.7192   7.7192
     7.8708   7.8708   7.9819   7.9819   7.9948   7.9948   8.0506   8.2119
     8.2120   8.2726   8.4282   8.4282   8.5185   8.5185   8.5654   8.7314
     8.7314   8.7875   8.7895   8.7896   8.7912   8.7912   8.8305   8.8305
     8.8570   8.9002   8.9500   8.9500   8.9812   9.0751   9.1533   9.1533
     9.1680   9.1763   9.1778   9.1779   9.2495   9.2657   9.2657   9.2684
     9.3080   9.3523   9.3523   9.3603   9.4012   9.4012   9.4268   9.4268
     9.4391   9.6477   9.6477   9.6732   9.6733   9.8358   9.8360  10.1922
    10.3287  10.3287  10.4006  10.4006  10.5466  10.5467  10.8418  10.8418
    10.9375  10.9375  12.7034  12.7034  12.8202  12.8923  13.0587  13.4059
    13.8250  13.8250  13.8951  14.0434  14.2081  15.1246  15.1628  15.1628
    15.1944  15.3408  15.3408  15.5529  15.5529  15.7658  15.8786  16.2171
    16.2171  16.2999  16.2999  16.4030  16.4030  16.5017  16.5021  16.5096
    16.6609  16.6609  16.6911  16.6911  16.7142  16.7142  16.7710  16.9759
    17.0973  17.0973  17.7168  17.7168  17.7447  17.7447  17.7449  17.7449
    17.9182  17.9182

     occupation numbers
     1.0000   1.0000   1.0000   1.0000   1.0000   1.0000   1.0000   1.0000
     1.0000   1.0000   1.0000   1.0000   1.0000   1.0000   1.0000   1.0000
     1.0000   1.0000   1.0000   1.0000   1.0000   1.0000   1.0000   1.0000
     1.0000   1.0000   1.0000   1.0000   1.0000   1.0000   1.0000   1.0000
     1.0000   1.0000   1.0000   1.0000   1.0000   1.0000   1.0000   1.0000
     1.0000   1.0000   1.0000   1.0000   1.0000   1.0000   1.0000   1.0000
     1.0000   1.0000   1.0000   1.0000   1.0000   1.0000   1.0000   1.0000
     1.0000   1.0000   1.0000   1.0000   1.0000   1.0000   1.0000   1.0000
     1.0000   1.0000   1.0000   1.0000   1.0000   1.0000   1.0000   1.0000
     1.0000   1.0000   1.0000   1.0000   1.0000   1.0000   1.0000   1.0000
     1.0000   1.0000   1.0000   1.0000   1.0000   1.0000   1.0000   1.0000
     1.0000   1.0000   1.0000   1.0000   1.0000   1.0000   1.0000   1.0000
     1.0000   1.0000   1.0000   1.0000   1.0000   1.0000   1.0000   1.0000
     1.0000   1.0000   1.0000   1.0000   1.0000   1.0000   1.0000   1.0000
     1.0000   1.0000   1.0000   1.0000   1.0000   1.0000   1.0000   1.0000
     1.0000   1.0000   1.0000   1.0000   1.0000   1.0000   1.0000   1.0000
     1.0000   1.0000   1.0000   1.0000   1.0000   1.0000   1.0000   1.0000
     1.0000   1.0000   1.0000   1.0000   1.0000   1.0000   1.0000   1.0000
     1.0000   1.0000   1.0000   1.0000   1.0000   1.0000   1.0000   1.0000
     1.0000   1.0000   1.0000   1.0000   1.0000   1.0000   1.0000   1.0000
     1.0000   1.0000   1.0000   1.0000   1.0000   1.0000   1.0000   1.0000
     1.0000   1.0000   1.0000   1.0000   1.0000   1.0000   1.0000   1.0000
     1.0000   1.0000   1.0000   1.0000   1.0000   1.0000   1.0000   1.0000
     1.0000   1.0000   1.0000   1.0000   1.0000   1.0000   1.0000   1.0000
     1.0000   1.0000   1.0000   1.0000   1.0000   1.0000   1.0000   1.0000
     1.0000   1.0000   1.0000   1.0000   1.0000   1.0000   1.0000   1.0000
     1.0000   1.0000   1.0000   1.0000   1.0000   1.0000   1.0000   1.0000
     1.0000   1.0000   1.0000   1.0000   1.0000   1.0000   1.0000   1.0000
     1.0000   1.0000   1.0000   1.0000   1.0000   1.0000   1.0000   1.0000
     1.0000   1.0000   1.0000   1.0000   1.0000   1.0000   1.0000   1.0000
     1.0000   1.0000   1.0000   1.0000   1.0000   1.0000   1.0351   1.0351
     0.9069   0.9069  -0.0000  -0.0000  -0.0000  -0.0000  -0.0000  -0.0000
    -0.0000  -0.0000  -0.0000  -0.0000  -0.0000  -0.0000  -0.0000  -0.0000
    -0.0000  -0.0000  -0.0000  -0.0000  -0.0000  -0.0000  -0.0000  -0.0000
    -0.0000  -0.0000  -0.0000  -0.0000  -0.0000  -0.0000  -0.0000  -0.0000
    -0.0000  -0.0000  -0.0000  -0.0000  -0.0000  -0.0000  -0.0000  -0.0000
    -0.0000  -0.0000  -0.0000  -0.0000  -0.0000  -0.0000  -0.0000  -0.0000
    -0.0000  -0.0000

[...]

          k =-0.5000-0.5000 0.0000 ( 35276 PWs)   bands (ev):

[...]

 ------ SPIN DOWN ----------

[...]

          k = 0.0000-0.5000-0.3279 ( 35300 PWs)   bands (ev):

[...]

          k =-0.5000-0.5000-0.3279 ( 35256 PWs)   bands (ev):

  -100.5224-100.5224-100.5224-100.5223-100.2932-100.2932-100.2926-100.2926
   -99.9703 -99.9703 -99.9703 -99.9703 -58.5464 -58.5464 -58.5464 -58.5464
   -58.5463 -58.5463 -58.5463 -58.5463 -58.2822 -58.2822 -58.2822 -58.2822
   -58.2816 -58.2816 -58.2815 -58.2815 -58.0390 -58.0390 -58.0389 -58.0389
   -58.0303 -58.0303 -58.0303 -58.0303 -57.9130 -57.9130 -57.9126 -57.9126
   -57.7113 -57.7113 -57.7113 -57.7113 -57.7113 -57.7113 -57.7113 -57.7113
   -30.1812 -30.1812 -30.1812 -30.1812 -15.1094 -15.1094 -15.1094 -15.1094
   -15.0991 -15.0991 -15.0991 -15.0991 -10.7158 -10.7158 -10.7158 -10.7158
   -10.6947 -10.6947 -10.6947 -10.6947 -10.6482 -10.6482 -10.6482 -10.6482
    -6.9949  -6.9949  -6.9949  -6.9949  -6.7776  -6.7776  -6.7776  -6.7776
    -6.5566  -6.5566  -6.5566  -6.5566  -6.3202  -6.3202  -6.3201  -6.3201
    -6.1119  -6.1119  -6.1119  -6.1119  -5.7855  -5.7855  -5.7855  -5.7855
    -0.5635  -0.5635  -0.5635  -0.5635  -0.5515  -0.5515  -0.5515  -0.5515
    -0.5486  -0.5486  -0.5486  -0.5486  -0.4336  -0.4336  -0.4336  -0.4336
    -0.0575  -0.0575  -0.0575  -0.0575  -0.0218  -0.0218  -0.0218  -0.0218
     4.2475   4.2475   4.2475   4.2475   4.6379   4.6379   4.6379   4.6379
     5.0259   5.0259   5.0261   5.0261   5.2598   5.2598   5.2603   5.2603
     5.6211   5.6211   5.6211   5.6211   5.7471   5.7471   5.7472   5.7472
     5.8603   5.8603   5.8604   5.8604   5.9521   5.9521   5.9521   5.9521
     6.3414   6.3414   6.3415   6.3415   6.7856   6.7856   6.7857   6.7857
     6.9363   6.9363   6.9364   6.9364   6.9622   6.9622   6.9622   6.9622
     7.2288   7.2288   7.2288   7.2288   7.6410   7.6410   7.6410   7.6410
     7.8493   7.8493   7.8494   7.8494   8.0205   8.0205   8.0206   8.0206
     8.0744   8.0744   8.0745   8.0745   8.1910   8.1910   8.1910   8.1910
     8.2238   8.2238   8.2238   8.2238   8.6241   8.6241   8.6242   8.6242
     8.8303   8.8303   8.8303   8.8303   8.8468   8.8468   8.8470   8.8470
     8.9167   8.9167   8.9168   8.9168   8.9460   8.9460   8.9461   8.9461
     9.0962   9.0962   9.0962   9.0962   9.1541   9.1541   9.1541   9.1541
     9.1755   9.1755   9.1755   9.1755   9.2994   9.2994   9.2994   9.2994
     9.4668   9.4668   9.4668   9.4668  10.3817  10.3817  10.3818  10.3818
    10.8108  10.8108  10.8108  10.8109  11.0222  11.0222  11.0223  11.0223
    11.3666  11.3666  11.3672  11.3672  13.6842  13.6842  13.6842  13.6842
    14.5606  14.5606  14.5606  14.5606  14.7920  14.7920  14.7920  14.7920
    14.9708  14.9708  14.9708  14.9708  16.0989  16.0989  16.0989  16.0989
    16.3926  16.3926  16.3926  16.3926  16.4567  16.4567  16.4567  16.4567
    16.5217  16.5217  16.5217  16.5217  16.7811  16.7811  16.7811  16.7811
    16.9102  16.9102  16.9102  16.9102  17.3517  17.3517  17.3517  17.3518
    17.5472  17.5472

     occupation numbers
     1.0000   1.0000   1.0000   1.0000   1.0000   1.0000   1.0000   1.0000
     1.0000   1.0000   1.0000   1.0000   1.0000   1.0000   1.0000   1.0000
     1.0000   1.0000   1.0000   1.0000   1.0000   1.0000   1.0000   1.0000
     1.0000   1.0000   1.0000   1.0000   1.0000   1.0000   1.0000   1.0000
     1.0000   1.0000   1.0000   1.0000   1.0000   1.0000   1.0000   1.0000
     1.0000   1.0000   1.0000   1.0000   1.0000   1.0000   1.0000   1.0000
     1.0000   1.0000   1.0000   1.0000   1.0000   1.0000   1.0000   1.0000
     1.0000   1.0000   1.0000   1.0000   1.0000   1.0000   1.0000   1.0000
     1.0000   1.0000   1.0000   1.0000   1.0000   1.0000   1.0000   1.0000
     1.0000   1.0000   1.0000   1.0000   1.0000   1.0000   1.0000   1.0000
     1.0000   1.0000   1.0000   1.0000   1.0000   1.0000   1.0000   1.0000
     1.0000   1.0000   1.0000   1.0000   1.0000   1.0000   1.0000   1.0000
     1.0000   1.0000   1.0000   1.0000   1.0000   1.0000   1.0000   1.0000
     1.0000   1.0000   1.0000   1.0000   1.0000   1.0000   1.0000   1.0000
     1.0000   1.0000   1.0000   1.0000   1.0000   1.0000   1.0000   1.0000
     1.0000   1.0000   1.0000   1.0000   1.0000   1.0000   1.0000   1.0000
     1.0000   1.0000   1.0000   1.0000   1.0000   1.0000   1.0000   1.0000
     1.0000   1.0000   1.0000   1.0000   1.0000   1.0000   1.0000   1.0000
     1.0000   1.0000   1.0000   1.0000   1.0000   1.0000   1.0000   1.0000
     1.0000   1.0000   1.0000   1.0000   1.0000   1.0000   1.0000   1.0000
     1.0000   1.0000   1.0000   1.0000   1.0000   1.0000   1.0000   1.0000
     1.0000   1.0000   1.0000   1.0000   1.0000   1.0000   1.0000   1.0000
     1.0000   1.0000   1.0000   1.0000   1.0000   1.0000   1.0000   1.0000
     1.0000   1.0000   1.0000   1.0000   1.0000   1.0000   1.0000   1.0000
     1.0000   1.0000   1.0000   1.0000   1.0000   1.0000   1.0000   1.0000
     1.0000   1.0000   1.0000   1.0000   1.0000   1.0000   1.0000   1.0000
     1.0000   1.0000   1.0000   1.0000   1.0000   1.0000   1.0000   1.0000
     1.0000   1.0000   1.0000   1.0000   1.0000   1.0000   1.0000   1.0000
     1.0000   1.0000   1.0000   1.0000   1.0000   1.0000   1.0000   1.0000
     1.0000   1.0000   1.0000   1.0000   1.0000   1.0000   1.0000   1.0000
     1.0275   1.0275   1.0275   1.0275   0.4573   0.4572   0.4567   0.4567
    -0.0008  -0.0008  -0.0008  -0.0008  -0.0000  -0.0000  -0.0000  -0.0000
    -0.0000  -0.0000  -0.0000  -0.0000  -0.0000  -0.0000  -0.0000  -0.0000
    -0.0000  -0.0000  -0.0000  -0.0000  -0.0000  -0.0000  -0.0000  -0.0000
    -0.0000  -0.0000  -0.0000  -0.0000  -0.0000  -0.0000  -0.0000  -0.0000
    -0.0000  -0.0000  -0.0000  -0.0000  -0.0000  -0.0000  -0.0000  -0.0000
    -0.0000  -0.0000  -0.0000  -0.0000  -0.0000  -0.0000  -0.0000  -0.0000
    -0.0000  -0.0000

     the Fermi energy is    11.0153 ev

!    total energy              =   -6554.67880429 Ry
     estimated scf accuracy    <          7.2E-09 Ry
     smearing contrib. (-TS)   =      -0.00138024 Ry
     internal energy E=F+TS    =   -6554.67742405 Ry

     The total energy is F=E-TS. E is the sum of the following terms:
     one-electron contribution =   -5519.31956415 Ry
     hartree contribution      =    3037.09118899 Ry
     xc contribution           =    -965.42430895 Ry
     ewald contribution        =   -3107.44375877 Ry
     Hubbard energy            =       0.41901884 Ry

     total magnetization       =    -0.00 Bohr mag/cell
     absolute magnetization    =     1.65 Bohr mag/cell

     convergence has been achieved in  79 iterations

     Writing all to output data dir ./YBCO6/YBCO6.save/

     General routines

     Parallel routines

     Hubbard U routines

   This run was terminated on:   0:56:51   2Jan2024

   JOB DONE.