     Program PWSCF v.7.2 starts on  2Jan2024 at 11: 2:44

     Waiting for input...
     Reading input from standard input
Warning: card &CELL ignored
Warning: card / ignored

     Current dimensions of program PWSCF are:
     Max number of different atomic species (ntypx) = 10
     Max number of k-points (npk) =  40000
     Max angular momentum in pseudopotentials (lmaxx) =  4
     Found identity + ( -0.5000 -0.5000  0.0000) symmetry
     This is a supercell, fractional translations are disabled

     R & G space division:  proc/nbgrp/npool/nimage =       4
     Subspace diagonalization in iterative solution of the eigenvalue problem:
     one sub-group per band group will be used

     Using Slab Decomposition

     bravais-lattice index     =            6
     lattice parameter (alat)  =      14.3459  a.u.
     unit-cell volume          =    4502.1906 (a.u.)^3
     number of atoms/cell      =           48
     number of atomic types    =            6
     number of electrons       =       496.00
     number of Kohn-Sham states=          298
     kinetic-energy cutoff     =      60.0000  Ry
     charge density cutoff     =     540.0000  Ry
     scf convergence threshold =      1.0E-08
     mixing beta               =       0.1000
     number of iterations used =            8  plain     mixing
     Exchange-correlation= SLA  PZ   NOGX NOGC
                           (   1   1   0   0   0   0   0)
     Hubbard projectors: ortho-atomic
     Hubbard parameters of DFT+U (Dudarev formulation) in eV:
     U(Cu1-3d) =  2.5000
     U(Cu2-3d) =  2.5000

     Internal variables: lda_plus_u = T, lda_plus_u_kind = 0

     celldm(1)=  14.345919  celldm(2)=   0.000000  celldm(3)=   1.524891
     celldm(4)=   0.000000  celldm(5)=   0.000000  celldm(6)=   0.000000

     crystal axes: (cart. coord. in units of alat)
               a(1) = (   1.000000   0.000000   0.000000 )
               a(2) = (   0.000000   1.000000   0.000000 )
               a(3) = (   0.000000   0.000000   1.524891 )

     reciprocal axes: (cart. coord. in units 2 pi/alat)
               b(1) = (  1.000000  0.000000  0.000000 )
               b(2) = (  0.000000  1.000000  0.000000 )
               b(3) = (  0.000000  0.000000  0.655785 )

     PseudoPot. # 1 for Y  read from file:
     ~/q-e/pseudo/gbrv_lda/y_lda_v1.4.uspp.F.UPF
     MD5 check sum: Not computed, couldn't open file
     Pseudo is Ultrasoft + core correction, Zval = 11.0
     Generated by new atomic code, or converted to UPF format
     Using radial grid of  885 points,  6 beta functions with:
                l(1) =   0
                l(2) =   0
                l(3) =   1
                l(4) =   1
                l(5) =   2
                l(6) =   2
     Q(r) pseudized with  8 coefficients,  rinner =    1.200   1.200   1.200
                                                       1.200   1.200

     PseudoPot. # 2 for Ba read from file:
     ~/q-e/pseudo/gbrv_lda/ba_lda_v1.uspp.F.UPF
     MD5 check sum: Not computed, couldn't open file
     Pseudo is Ultrasoft + core correction, Zval = 10.0
     Generated by new atomic code, or converted to UPF format
     Using radial grid of  907 points,  7 beta functions with:
                l(1) =   0
                l(2) =   0
                l(3) =   1
                l(4) =   1
                l(5) =   2
                l(6) =   2
                l(7) =   3
     Q(r) pseudized with  6 coefficients,  rinner =    1.700   1.700   1.700
                                                       1.700   1.700   1.700
                                                       1.700

     PseudoPot. # 3 for Cu read from file:
     ~/q-e/pseudo/gbrv_lda/cu_lda_v1.2.uspp.F.UPF
     MD5 check sum: Not computed, couldn't open file
     Pseudo is Ultrasoft + core correction, Zval = 19.0
     Generated by new atomic code, or converted to UPF format
     Using radial grid of  867 points,  6 beta functions with:
                l(1) =   0
                l(2) =   0
                l(3) =   1
                l(4) =   1
                l(5) =   2
                l(6) =   2
     Q(r) pseudized with  8 coefficients,  rinner =    1.150   1.150   1.150
                                                       1.150   1.150

[...]

     PseudoPot. # 5 for Cu read from file:
     ~/q-e/pseudo/gbrv_lda/cu_lda_v1.2.uspp.F.UPF
     MD5 check sum: Not computed, couldn't open file
     Pseudo is Ultrasoft + core correction, Zval = 19.0
     Generated by new atomic code, or converted to UPF format
     Using radial grid of  867 points,  6 beta functions with:
                l(1) =   0
                l(2) =   0
                l(3) =   1
                l(4) =   1
                l(5) =   2
                l(6) =   2
     Q(r) pseudized with  8 coefficients,  rinner =    1.150   1.150   1.150
                                                       1.150   1.150

     PseudoPot. # 6 for O  read from file:
     ~/q-e/pseudo/gbrv_lda/o_lda_v1.2.uspp.F.UPF
     MD5 check sum: Not computed, couldn't open file
     Pseudo is Ultrasoft + core correction, Zval =  6.0
     Generated by new atomic code, or converted to UPF format
     Using radial grid of  737 points,  5 beta functions with:
                l(1) =   0
                l(2) =   0
                l(3) =   1
                l(4) =   1
                l(5) =   2
     Q(r) pseudized with  8 coefficients,  rinner =    0.900   0.900   0.900
                                                       0.900   0.900

     atomic species   valence    mass     pseudopotential
     Y                11.00    88.90584     Y ( 1.00)
     Ba               10.00   137.32700     Ba( 1.00)
     Cu               19.00    63.54600     Cu( 1.00)
     Cu1              19.00    63.54600     Cu( 1.00)
     Cu2              19.00    63.54600     Cu( 1.00)
     O                 6.00    15.99900     O ( 1.00)

     Starting magnetic structure
     atomic species   magnetization
     Y               0.000
     Ba              0.000
     Cu              0.000
     Cu1             0.100
     Cu2            -0.100
     O               0.000

      8 Sym. Ops. (no inversion) found

                                    s                        frac. trans.

      isym =  1     identity

 cryst.   s( 1) = (     1          0          0      )
                  (     0          1          0      )
                  (     0          0          1      )

 cart.    s( 1) = (  1.0000000  0.0000000  0.0000000 )
                  (  0.0000000  1.0000000  0.0000000 )
                  (  0.0000000  0.0000000  1.0000000 )

      isym =  2     180 deg rotation - cart. axis [0,0,1]

[...]

      isym =  4      90 deg rotation - cart. axis [0,0,1]

[...]

      isym =  5     inv. 180 deg rotation - cart. axis [0,1,0]

[...]

      isym =  8     inv. 180 deg rotation - cart. axis [1,-1,0]

 cryst.   s( 8) = (     0          1          0      )
                  (     1          0          0      )
                  (     0          0          1      )

 cart.    s( 8) = (  0.0000000  1.0000000  0.0000000 )
                  (  1.0000000  0.0000000  0.0000000 )
                  (  0.0000000  0.0000000  1.0000000 )

     point group C_4v (4mm)
     there are  5 classes
     the character table:

       E     2C4   C2    2s_v  2s_d
A_1    1.00  1.00  1.00  1.00  1.00
A_2    1.00  1.00  1.00 -1.00 -1.00
B_1    1.00 -1.00  1.00  1.00 -1.00
B_2    1.00 -1.00  1.00 -1.00  1.00
E      2.00  0.00 -2.00  0.00  0.00

     the symmetry operations in each class and the name of the first element:

     E        1
          identity
     2C4      3    4
           90 deg rotation - cart. axis [0,0,-1]
     C2       2
          180 deg rotation - cart. axis [0,0,1]
     2s_v     5    6
          inv. 180 deg rotation - cart. axis [0,1,0]
     2s_d     7    8
          inv. 180 deg rotation - cart. axis [1,1,0]

   Cartesian axes

     site n.     atom                  positions (alat units)
         1        Y      tau(   1) = (   0.2500000   0.2500000   0.7624455  )
         2        Y      tau(   2) = (   0.2500000   0.7500000   0.7624455  )
         3        Y      tau(   3) = (   0.7500000   0.2500000   0.7624455  )
         4        Y      tau(   4) = (   0.7500000   0.7500000   0.7624455  )
         5        Ba     tau(   5) = (   0.2500000   0.2500000   0.2966571  )
         6        Ba     tau(   6) = (   0.2500000   0.2500000   1.2282339  )
         7        Ba     tau(   7) = (   0.2500000   0.7500000   0.2966571  )
         8        Ba     tau(   8) = (   0.2500000   0.7500000   1.2282339  )
         9        Ba     tau(   9) = (   0.7500000   0.2500000   0.2966571  )
        10        Ba     tau(  10) = (   0.7500000   0.2500000   1.2282339  )
        11        Ba     tau(  11) = (   0.7500000   0.7500000   0.2966571  )
        12        Ba     tau(  12) = (   0.7500000   0.7500000   1.2282339  )
        13        Cu     tau(  13) = (   0.0000000   0.0000000   0.0000000  )
        14        Cu1    tau(  14) = (   0.0000000   0.0000000   0.5526369  )
        15        Cu2    tau(  15) = (   0.0000000   0.0000000   0.9722541  )
        16        Cu     tau(  16) = (   0.0000000   0.5000000   0.0000000  )
        17        Cu2    tau(  17) = (   0.0000000   0.5000000   0.5526369  )
        18        Cu1    tau(  18) = (   0.0000000   0.5000000   0.9722541  )
        19        Cu     tau(  19) = (   0.5000000   0.0000000   0.0000000  )
        20        Cu2    tau(  20) = (   0.5000000   0.0000000   0.5526369  )
        21        Cu1    tau(  21) = (   0.5000000   0.0000000   0.9722541  )
        22        Cu     tau(  22) = (   0.5000000   0.5000000   0.0000000  )
        23        Cu1    tau(  23) = (   0.5000000   0.5000000   0.5526369  )
        24        Cu2    tau(  24) = (   0.5000000   0.5000000   0.9722541  )
        25        O      tau(  25) = (   0.0000000   0.0000000   0.2314064  )
        26        O      tau(  26) = (   0.0000000   0.0000000   1.2934846  )
        27        O      tau(  27) = (   0.5000000   0.0000000   0.2314064  )
        28        O      tau(  28) = (   0.5000000   0.0000000   1.2934846  )
        29        O      tau(  29) = (   0.0000000   0.5000000   0.2314064  )
        30        O      tau(  30) = (   0.0000000   0.5000000   1.2934846  )
        31        O      tau(  31) = (   0.5000000   0.5000000   0.2314064  )
        32        O      tau(  32) = (   0.5000000   0.5000000   1.2934846  )
        33        O      tau(  33) = (   0.2500000   0.0000000   0.5769788  )
        34        O      tau(  34) = (   0.2500000   0.0000000   0.9479122  )
        35        O      tau(  35) = (   0.2500000   0.5000000   0.5769788  )
        36        O      tau(  36) = (   0.2500000   0.5000000   0.9479122  )
        37        O      tau(  37) = (   0.7500000   0.0000000   0.5769788  )
        38        O      tau(  38) = (   0.7500000   0.0000000   0.9479122  )
        39        O      tau(  39) = (   0.7500000   0.5000000   0.5769788  )
        40        O      tau(  40) = (   0.7500000   0.5000000   0.9479122  )
        41        O      tau(  41) = (   0.0000000   0.2500000   0.5769788  )
[...]
     ------------------------ ATOM   24 ------------------------
     Tr[ns( 24)] (up, down, total) =   4.54971  4.74397  9.29368
     Atomic magnetic moment for atom  24 =  -0.19426
     SPIN  1
     eigenvalues:
       0.665  0.947  0.977  0.977  0.984
     eigenvectors (columns):
      -0.000  1.000 -0.000 -0.000  0.000
      -0.000  0.000  0.329  0.944  0.000
      -0.000  0.000  0.944 -0.329  0.000
       1.000  0.000  0.000  0.000 -0.000
       0.000 -0.000 -0.000 -0.000  1.000
     occupation matrix ns (before diag.):
       0.947 -0.000 -0.000  0.000  0.000
      -0.000  0.977 -0.000  0.000  0.000
      -0.000 -0.000  0.977  0.000  0.000
       0.000  0.000  0.000  0.665 -0.000
       0.000  0.000  0.000 -0.000  0.984
     SPIN  2
     eigenvalues:
       0.852  0.952  0.978  0.978  0.985
     eigenvectors (columns):
      -0.000  1.000 -0.000 -0.000  0.000
      -0.000  0.000  0.361  0.933  0.000
      -0.000  0.000  0.933 -0.361  0.000
       1.000  0.000  0.000  0.000 -0.000
       0.000 -0.000 -0.000 -0.000  1.000
     occupation matrix ns (before diag.):
       0.952 -0.000 -0.000  0.000  0.000
      -0.000  0.978 -0.000  0.000  0.000
      -0.000 -0.000  0.978  0.000  0.000
       0.000  0.000  0.000  0.852 -0.000
       0.000  0.000  0.000 -0.000  0.985

     Number of occupied Hubbard levels =   74.3494

     negative rho (up, down):  3.570E-01 3.570E-01

     HUBBARD ENERGY =    0.4146  (Ry)

     Magnetic moment per site  (integrated on atomic sphere of radius R)
     atom   1 (R=0.128)  charge=  7.5247  magn= -0.0000
     atom   2 (R=0.128)  charge=  7.5247  magn= -0.0000
     atom   3 (R=0.128)  charge=  7.5247  magn= -0.0000
     atom   4 (R=0.128)  charge=  7.5247  magn= -0.0000
     atom   5 (R=0.148)  charge=  6.5866  magn= -0.0000
     atom   6 (R=0.148)  charge=  6.5866  magn=  0.0000
     atom   7 (R=0.148)  charge=  6.5866  magn= -0.0000
     atom   8 (R=0.148)  charge=  6.5866  magn=  0.0000
     atom   9 (R=0.148)  charge=  6.5866  magn= -0.0000
     atom  10 (R=0.148)  charge=  6.5866  magn=  0.0000
     atom  11 (R=0.148)  charge=  6.5866  magn= -0.0000
     atom  12 (R=0.148)  charge=  6.5866  magn=  0.0000
     atom  13 (R=0.095)  charge= 15.9140  magn=  0.0000
     atom  14 (R=0.104)  charge= 16.3664  magn=  0.1991
     atom  15 (R=0.104)  charge= 16.3664  magn= -0.1991
     atom  16 (R=0.095)  charge= 15.9140  magn=  0.0000
     atom  17 (R=0.104)  charge= 16.3664  magn= -0.1991
     atom  18 (R=0.104)  charge= 16.3664  magn=  0.1991
     atom  19 (R=0.095)  charge= 15.9140  magn=  0.0000
     atom  20 (R=0.104)  charge= 16.3664  magn= -0.1991
     atom  21 (R=0.104)  charge= 16.3664  magn=  0.1991
     atom  22 (R=0.095)  charge= 15.9140  magn=  0.0000
     atom  23 (R=0.104)  charge= 16.3664  magn=  0.1991
     atom  24 (R=0.104)  charge= 16.3664  magn= -0.1991
     atom  25 (R=0.095)  charge=  4.8068  magn=  0.0001
     atom  26 (R=0.095)  charge=  4.8068  magn= -0.0001
     atom  27 (R=0.095)  charge=  4.8068  magn= -0.0001
     atom  28 (R=0.095)  charge=  4.8068  magn=  0.0001
     atom  29 (R=0.095)  charge=  4.8068  magn= -0.0001
     atom  30 (R=0.095)  charge=  4.8068  magn=  0.0001
     atom  31 (R=0.095)  charge=  4.8068  magn=  0.0001
     atom  32 (R=0.095)  charge=  4.8068  magn= -0.0001
     atom  33 (R=0.095)  charge=  4.8442  magn=  0.0000
     atom  34 (R=0.095)  charge=  4.8442  magn= -0.0000
     atom  35 (R=0.095)  charge=  4.8442  magn=  0.0000
     atom  36 (R=0.095)  charge=  4.8442  magn= -0.0000
     atom  37 (R=0.095)  charge=  4.8442  magn=  0.0000
     atom  38 (R=0.095)  charge=  4.8442  magn= -0.0000
     atom  39 (R=0.095)  charge=  4.8442  magn=  0.0000
     atom  40 (R=0.095)  charge=  4.8442  magn= -0.0000
     atom  41 (R=0.095)  charge=  4.8442  magn=  0.0000
     atom  42 (R=0.095)  charge=  4.8442  magn= -0.0000
     atom  43 (R=0.095)  charge=  4.8442  magn=  0.0000
     atom  44 (R=0.095)  charge=  4.8442  magn= -0.0000
     atom  45 (R=0.095)  charge=  4.8442  magn=  0.0000
     atom  46 (R=0.095)  charge=  4.8442  magn= -0.0000
     atom  47 (R=0.095)  charge=  4.8442  magn=  0.0000
     atom  48 (R=0.095)  charge=  4.8442  magn= -0.0000

     End of self-consistent calculation

 ------ SPIN UP ------------

          k = 0.0000 0.0000 0.0000 ( 35361 PWs)   bands (ev):

  -100.5256-100.5256-100.5256-100.5256-100.2266-100.2266-100.2266-100.2266
  -100.0745-100.0745-100.0745-100.0745 -58.5533 -58.5533 -58.5532 -58.5532
   -58.5532 -58.5532 -58.5532 -58.5532 -58.2092 -58.2092 -58.2092 -58.2092
   -58.2092 -58.2092 -58.2092 -58.2092 -58.1364 -58.1364 -58.1364 -58.1364
   -58.0291 -58.0291 -58.0291 -58.0291 -57.8639 -57.8639 -57.8639 -57.8639
   -57.8134 -57.8134 -57.8134 -57.8134 -57.8132 -57.8132 -57.8132 -57.8132
   -30.1351 -30.1172 -30.1172 -30.0997 -15.2642 -15.2580 -15.1179 -15.1179
   -15.1131 -15.1131 -15.0050 -14.9998 -10.9626 -10.9626 -10.9409 -10.8917
   -10.8917 -10.6225 -10.6225 -10.3462 -10.2213 -10.2213 -10.1969 -10.1969
    -7.8178  -7.0899  -7.0899  -6.9300  -6.9300  -6.7402  -6.7402  -6.6251
    -6.5290  -6.5290  -6.5105  -6.2049  -6.1608  -6.1608  -6.1563  -6.1563
    -6.0646  -6.0603  -6.0603  -5.9982  -5.9951  -5.9951  -5.7189  -5.6378
    -1.0034  -1.0034  -0.9898  -0.9898  -0.6329  -0.6118  -0.6078  -0.6078
    -0.4386  -0.4260  -0.4260  -0.3852  -0.2648  -0.2648  -0.1712  -0.1712
    -0.0948  -0.0948  -0.0922  -0.0922   0.1576   0.1576   0.1648   0.1648
     2.9640   3.5838   4.1143   4.1143   4.3852   4.3852   4.6687   4.7874
     4.8409   5.3414   5.3414   5.4170   5.5049   5.5192   5.5192   5.5583
     5.5583   5.6879   5.7200   5.7270   5.7270   5.8205   5.8205   5.8505
     5.8505   6.1256   6.1256   6.1375   6.1375   6.3413   6.3413   6.4400
     6.4400   6.4494   6.4494   6.6595   6.7754   6.7755   7.0286   7.0286
     7.0624   7.0624   7.0976   7.0982   7.1301   7.1484   7.1484   7.1484
     7.2721   7.2721   7.4870   7.4870   7.5608   7.5608   7.5696   7.5773
     7.5773   7.6028   7.6028   7.6448   7.6448   7.6462   7.6462   7.7136
     7.8824   7.8824   7.9349   7.9349   8.0589   8.0589   8.1052   8.2122
     8.2122   8.2922   8.4003   8.4003   8.4903   8.5814   8.5814   8.7525
     8.7525   8.7644   8.7644   8.8039   8.8373   8.8373   8.8686   8.8762
     8.8762   8.8771   8.8771   8.9282   8.9609   9.0108   9.0609   9.0609
     9.1530   9.1734   9.1819   9.1819   9.2230   9.2560   9.2560   9.2631
     9.2728   9.3573   9.3717   9.3717   9.4562   9.4562   9.4740   9.4740
     9.5110   9.6031   9.6031   9.6891   9.6891   9.8446   9.8446  10.1091
    10.2593  10.2593  10.3202  10.3202  10.6284  10.6284  10.7646  10.7646
    10.8618  10.8618  12.6598  12.6598  12.8876  12.9599  13.0836  13.4352
    13.7738  13.7738  13.8691  14.0208  14.1856  15.1141  15.1998  15.1998
    15.2162  15.2828  15.2829  15.6154  15.6154  15.8273  15.8684  16.2279
    16.2279  16.3418  16.3418  16.3943  16.3943  16.4919  16.4949  16.5358
    16.6388  16.6388  16.6532  16.6532  16.7123  16.7123  16.7686  16.9923
    17.1076  17.1076  17.6903  17.6903  17.7497  17.7497  17.7779  17.9247
    17.9250  17.9965

     occupation numbers
     1.0000   1.0000   1.0000   1.0000   1.0000   1.0000   1.0000   1.0000
     1.0000   1.0000   1.0000   1.0000   1.0000   1.0000   1.0000   1.0000
     1.0000   1.0000   1.0000   1.0000   1.0000   1.0000   1.0000   1.0000
     1.0000   1.0000   1.0000   1.0000   1.0000   1.0000   1.0000   1.0000
     1.0000   1.0000   1.0000   1.0000   1.0000   1.0000   1.0000   1.0000
     1.0000   1.0000   1.0000   1.0000   1.0000   1.0000   1.0000   1.0000
     1.0000   1.0000   1.0000   1.0000   1.0000   1.0000   1.0000   1.0000
     1.0000   1.0000   1.0000   1.0000   1.0000   1.0000   1.0000   1.0000
     1.0000   1.0000   1.0000   1.0000   1.0000   1.0000   1.0000   1.0000
     1.0000   1.0000   1.0000   1.0000   1.0000   1.0000   1.0000   1.0000
     1.0000   1.0000   1.0000   1.0000   1.0000   1.0000   1.0000   1.0000
     1.0000   1.0000   1.0000   1.0000   1.0000   1.0000   1.0000   1.0000
     1.0000   1.0000   1.0000   1.0000   1.0000   1.0000   1.0000   1.0000
     1.0000   1.0000   1.0000   1.0000   1.0000   1.0000   1.0000   1.0000
     1.0000   1.0000   1.0000   1.0000   1.0000   1.0000   1.0000   1.0000
     1.0000   1.0000   1.0000   1.0000   1.0000   1.0000   1.0000   1.0000
     1.0000   1.0000   1.0000   1.0000   1.0000   1.0000   1.0000   1.0000
     1.0000   1.0000   1.0000   1.0000   1.0000   1.0000   1.0000   1.0000
     1.0000   1.0000   1.0000   1.0000   1.0000   1.0000   1.0000   1.0000
     1.0000   1.0000   1.0000   1.0000   1.0000   1.0000   1.0000   1.0000
     1.0000   1.0000   1.0000   1.0000   1.0000   1.0000   1.0000   1.0000
     1.0000   1.0000   1.0000   1.0000   1.0000   1.0000   1.0000   1.0000
     1.0000   1.0000   1.0000   1.0000   1.0000   1.0000   1.0000   1.0000
     1.0000   1.0000   1.0000   1.0000   1.0000   1.0000   1.0000   1.0000
     1.0000   1.0000   1.0000   1.0000   1.0000   1.0000   1.0000   1.0000
     1.0000   1.0000   1.0000   1.0000   1.0000   1.0000   1.0000   1.0000
     1.0000   1.0000   1.0000   1.0000   1.0000   1.0000   1.0000   1.0000
     1.0000   1.0000   1.0000   1.0000   1.0000   1.0000   1.0000   1.0000
     1.0000   1.0000   1.0000   1.0000   1.0000   1.0000   1.0000   1.0000
     1.0000   1.0000   1.0000   1.0000   1.0000   1.0000   1.0000   1.0000
     1.0000   1.0000   1.0000   1.0000   1.0164   1.0164   0.9759   0.9759
     0.5297   0.5297  -0.0000  -0.0000  -0.0000  -0.0000  -0.0000  -0.0000
    -0.0000  -0.0000  -0.0000  -0.0000  -0.0000  -0.0000  -0.0000  -0.0000
    -0.0000  -0.0000  -0.0000  -0.0000  -0.0000  -0.0000  -0.0000  -0.0000
    -0.0000  -0.0000  -0.0000  -0.0000  -0.0000  -0.0000  -0.0000  -0.0000
    -0.0000  -0.0000  -0.0000  -0.0000  -0.0000  -0.0000  -0.0000  -0.0000
    -0.0000  -0.0000  -0.0000  -0.0000  -0.0000  -0.0000  -0.0000  -0.0000
    -0.0000  -0.0000

[...]

          k =-0.5000-0.5000 0.0000 ( 35276 PWs)   bands (ev):

[...]

 ------ SPIN DOWN ----------

[...]

          k = 0.2500-0.5000-0.3279 ( 35320 PWs)   bands (ev):

[...]

          k =-0.5000-0.5000-0.3279 ( 35256 PWs)   bands (ev):

  -100.5256-100.5256-100.5255-100.5255-100.2266-100.2266-100.2266-100.2266
  -100.0745-100.0745-100.0745-100.0745 -58.5533 -58.5533 -58.5533 -58.5533
   -58.5532 -58.5532 -58.5532 -58.5532 -58.2092 -58.2092 -58.2092 -58.2092
   -58.2092 -58.2092 -58.2092 -58.2092 -58.1364 -58.1364 -58.1364 -58.1364
   -58.0291 -58.0291 -58.0290 -58.0290 -57.8639 -57.8639 -57.8639 -57.8639
   -57.8133 -57.8133 -57.8133 -57.8133 -57.8133 -57.8133 -57.8133 -57.8133
   -30.1173 -30.1173 -30.1173 -30.1173 -15.1307 -15.1307 -15.1307 -15.1307
   -15.1205 -15.1205 -15.1205 -15.1205 -10.6517 -10.6517 -10.6517 -10.6517
   -10.6302 -10.6302 -10.6302 -10.6302 -10.5838 -10.5838 -10.5838 -10.5838
    -6.9278  -6.9278  -6.9278  -6.9278  -6.7128  -6.7128  -6.7128  -6.7128
    -6.4862  -6.4862  -6.4862  -6.4862  -6.2502  -6.2502  -6.2502  -6.2502
    -6.1703  -6.1703  -6.1703  -6.1703  -5.8451  -5.8451  -5.8451  -5.8451
    -0.5787  -0.5787  -0.5787  -0.5787  -0.5745  -0.5745  -0.5745  -0.5745
    -0.5713  -0.5713  -0.5713  -0.5713  -0.4472  -0.4472  -0.4472  -0.4472
    -0.0809  -0.0809  -0.0809  -0.0809  -0.0447  -0.0447  -0.0447  -0.0447
     4.3096   4.3096   4.3096   4.3096   4.6973   4.6973   4.6973   4.6973
     5.0440   5.0440   5.0440   5.0440   5.3515   5.3515   5.3515   5.3515
     5.6696   5.6696   5.6696   5.6696   5.7761   5.7761   5.7761   5.7761
     5.8327   5.8327   5.8327   5.8327   5.9958   5.9958   5.9958   5.9958
     6.3900   6.3900   6.3900   6.3900   6.8174   6.8174   6.8174   6.8174
     6.9612   6.9612   6.9612   6.9612   6.9766   6.9766   6.9766   6.9766
     7.1686   7.1686   7.1686   7.1686   7.5821   7.5821   7.5821   7.5821
     7.8519   7.8519   7.8519   7.8519   8.0516   8.0516   8.0516   8.0516
     8.1324   8.1324   8.1324   8.1324   8.1502   8.1502   8.1502   8.1502
     8.2470   8.2470   8.2470   8.2470   8.6692   8.6692   8.6693   8.6693
     8.7946   8.7946   8.7946   8.7946   8.8658   8.8658   8.8659   8.8659
     8.9642   8.9642   8.9642   8.9642   8.9745   8.9745   8.9745   8.9745
     9.0644   9.0644   9.0644   9.0644   9.0978   9.0978   9.0978   9.0978
     9.1875   9.1875   9.1875   9.1875   9.2454   9.2454   9.2454   9.2454
     9.4356   9.4356   9.4356   9.4356  10.3012  10.3012  10.3012  10.3012
    10.7429  10.7429  10.7429  10.7429  11.0260  11.0260  11.0260  11.0260
    11.4714  11.4714  11.4714  11.4714  13.6311  13.6311  13.6311  13.6311
    14.6140  14.6140  14.6140  14.6140  14.7407  14.7407  14.7408  14.7408
    15.0171  15.0171  15.0171  15.0171  16.0677  16.0677  16.0677  16.0677
    16.3701  16.3701  16.3701  16.3701  16.4939  16.4939  16.4939  16.4939
    16.5019  16.5019  16.5019  16.5019  16.7828  16.7828  16.7828  16.7828
    16.9084  16.9084  16.9084  16.9084  17.3396  17.3396  17.3398  17.3398
    17.5489  17.5489

     occupation numbers
     1.0000   1.0000   1.0000   1.0000   1.0000   1.0000   1.0000   1.0000
     1.0000   1.0000   1.0000   1.0000   1.0000   1.0000   1.0000   1.0000
     1.0000   1.0000   1.0000   1.0000   1.0000   1.0000   1.0000   1.0000
     1.0000   1.0000   1.0000   1.0000   1.0000   1.0000   1.0000   1.0000
     1.0000   1.0000   1.0000   1.0000   1.0000   1.0000   1.0000   1.0000
     1.0000   1.0000   1.0000   1.0000   1.0000   1.0000   1.0000   1.0000
     1.0000   1.0000   1.0000   1.0000   1.0000   1.0000   1.0000   1.0000
     1.0000   1.0000   1.0000   1.0000   1.0000   1.0000   1.0000   1.0000
     1.0000   1.0000   1.0000   1.0000   1.0000   1.0000   1.0000   1.0000
     1.0000   1.0000   1.0000   1.0000   1.0000   1.0000   1.0000   1.0000
     1.0000   1.0000   1.0000   1.0000   1.0000   1.0000   1.0000   1.0000
     1.0000   1.0000   1.0000   1.0000   1.0000   1.0000   1.0000   1.0000
     1.0000   1.0000   1.0000   1.0000   1.0000   1.0000   1.0000   1.0000
     1.0000   1.0000   1.0000   1.0000   1.0000   1.0000   1.0000   1.0000
     1.0000   1.0000   1.0000   1.0000   1.0000   1.0000   1.0000   1.0000
     1.0000   1.0000   1.0000   1.0000   1.0000   1.0000   1.0000   1.0000
     1.0000   1.0000   1.0000   1.0000   1.0000   1.0000   1.0000   1.0000
     1.0000   1.0000   1.0000   1.0000   1.0000   1.0000   1.0000   1.0000
     1.0000   1.0000   1.0000   1.0000   1.0000   1.0000   1.0000   1.0000
     1.0000   1.0000   1.0000   1.0000   1.0000   1.0000   1.0000   1.0000
     1.0000   1.0000   1.0000   1.0000   1.0000   1.0000   1.0000   1.0000
     1.0000   1.0000   1.0000   1.0000   1.0000   1.0000   1.0000   1.0000
     1.0000   1.0000   1.0000   1.0000   1.0000   1.0000   1.0000   1.0000
     1.0000   1.0000   1.0000   1.0000   1.0000   1.0000   1.0000   1.0000
     1.0000   1.0000   1.0000   1.0000   1.0000   1.0000   1.0000   1.0000
     1.0000   1.0000   1.0000   1.0000   1.0000   1.0000   1.0000   1.0000
     1.0000   1.0000   1.0000   1.0000   1.0000   1.0000   1.0000   1.0000
     1.0000   1.0000   1.0000   1.0000   1.0000   1.0000   1.0000   1.0000
     1.0000   1.0000   1.0000   1.0000   1.0000   1.0000   1.0000   1.0000
     1.0000   1.0000   1.0000   1.0000   1.0000   1.0000   1.0000   1.0000
     1.0130   1.0130   1.0130   1.0130  -0.0350  -0.0350  -0.0350  -0.0350
    -0.0000  -0.0000  -0.0000  -0.0000  -0.0000  -0.0000  -0.0000  -0.0000
    -0.0000  -0.0000  -0.0000  -0.0000  -0.0000  -0.0000  -0.0000  -0.0000
    -0.0000  -0.0000  -0.0000  -0.0000  -0.0000  -0.0000  -0.0000  -0.0000
    -0.0000  -0.0000  -0.0000  -0.0000  -0.0000  -0.0000  -0.0000  -0.0000
    -0.0000  -0.0000  -0.0000  -0.0000  -0.0000  -0.0000  -0.0000  -0.0000
    -0.0000  -0.0000  -0.0000  -0.0000  -0.0000  -0.0000  -0.0000  -0.0000
    -0.0000  -0.0000

     the Fermi energy is    10.8666 ev

!    total energy              =   -6554.66270056 Ry
     estimated scf accuracy    <          3.9E-09 Ry
     smearing contrib. (-TS)   =       0.00280954 Ry
     internal energy E=F+TS    =   -6554.66551010 Ry

     The total energy is F=E-TS. E is the sum of the following terms:
     one-electron contribution =   -5519.49346749 Ry
     hartree contribution      =    3037.28340015 Ry
     xc contribution           =    -965.42632524 Ry
     ewald contribution        =   -3107.44375877 Ry
     Hubbard energy            =       0.41464126 Ry

     total magnetization       =     0.00 Bohr mag/cell
     absolute magnetization    =     2.16 Bohr mag/cell

     convergence has been achieved in  34 iterations

     Writing all to output data dir ./YBCO6/YBCO6.save/

     General routines

     Parallel routines

     Hubbard U routines

   This run was terminated on:  13:37:34   2Jan2024

   JOB DONE.