     Program PWSCF v.7.2 starts on 16Dec2023 at  0: 2:48

     Waiting for input...
     Reading input from standard input

     Current dimensions of program PWSCF are:
     Max number of different atomic species (ntypx) = 10
     Max number of k-points (npk) =  40000
     Max angular momentum in pseudopotentials (lmaxx) =  4

     R & G space division:  proc/nbgrp/npool/nimage =       4
     Subspace diagonalization in iterative solution of the eigenvalue problem:
     a serial algorithm will be used

     Using Slab Decomposition

     bravais-lattice index     =            8
     lattice parameter (alat)  =       7.2193  a.u.
     unit-cell volume          =    1170.3381 (a.u.)^3
     number of atoms/cell      =           13
     number of atomic types    =            6
     number of electrons       =       130.00
     number of Kohn-Sham states=           78
     kinetic-energy cutoff     =      90.0000  Ry
     charge density cutoff     =     720.0000  Ry
     scf convergence threshold =      1.0E-08
     mixing beta               =       0.1000
     number of iterations used =            8  plain     mixing
     energy convergence thresh.=      1.0E-04
     force convergence thresh. =      1.0E-03
     press convergence thresh. =      5.0E-01
     Exchange-correlation= SLA  PW   PBE  PBE
                           (   1   4   3   4   0   0   0)
     nstep                     =           50

     Hubbard projectors: ortho-atomic
     Hubbard parameters of DFT+U (Dudarev formulation) in eV:
     U(Cu1-3d) =  5.0000
     U(Cu2-3d) =  5.0000

     Internal variables: lda_plus_u = T, lda_plus_u_kind = 0

     celldm(1)=   7.219321  celldm(2)=   1.017061  celldm(3)=   3.058265
     celldm(4)=   0.000000  celldm(5)=   0.000000  celldm(6)=   0.000000

     crystal axes: (cart. coord. in units of alat)
               a(1) = (   1.000000   0.000000   0.000000 )
               a(2) = (   0.000000   1.017061   0.000000 )
               a(3) = (   0.000000   0.000000   3.058265 )

     reciprocal axes: (cart. coord. in units 2 pi/alat)
               b(1) = (  1.000000  0.000000  0.000000 )
               b(2) = (  0.000000  0.983225  0.000000 )
               b(3) = (  0.000000  0.000000  0.326983 )

     PseudoPot. # 1 for Y  read from file:
     ~/q-e/pseudo/all_pbe_UPF_v1.5/y_pbe_v1.4.uspp.F.UPF
     MD5 check sum: Not computed, couldn't open file
     Pseudo is Ultrasoft + core correction, Zval = 11.0
     Generated by new atomic code, or converted to UPF format
     Using radial grid of  885 points,  6 beta functions with:
                l(1) =   0
                l(2) =   0
                l(3) =   1
                l(4) =   1
                l(5) =   2
                l(6) =   2
     Q(r) pseudized with  8 coefficients,  rinner =    1.200   1.200   1.200
                                                       1.200   1.200

     PseudoPot. # 2 for Ba read from file:
     ~/q-e/pseudo/all_pbe_UPF_v1.5/ba_pbe_v1.uspp.F.UPF
     MD5 check sum: Not computed, couldn't open file
     Pseudo is Ultrasoft + core correction, Zval = 10.0
     Generated by new atomic code, or converted to UPF format
     Using radial grid of  907 points,  7 beta functions with:
                l(1) =   0
                l(2) =   0
                l(3) =   1
                l(4) =   1
                l(5) =   2
                l(6) =   2
                l(7) =   3
     Q(r) pseudized with  6 coefficients,  rinner =    1.700   1.700   1.700
                                                       1.700   1.700   1.700
                                                       1.700

     PseudoPot. # 3 for Cu read from file:
     ~/q-e/pseudo/all_pbe_UPF_v1.5/cu_pbe_v1.2.uspp.F.UPF
     MD5 check sum: Not computed, couldn't open file
     Pseudo is Ultrasoft + core correction, Zval = 19.0
     Generated by new atomic code, or converted to UPF format
     Using radial grid of  867 points,  6 beta functions with:
                l(1) =   0
                l(2) =   0
                l(3) =   1
                l(4) =   1
                l(5) =   2
                l(6) =   2
     Q(r) pseudized with  8 coefficients,  rinner =    1.150   1.150   1.150
                                                       1.150   1.150

[...]

     PseudoPot. # 6 for O  read from file:
     ~/q-e/pseudo/all_pbe_UPF_v1.5/o_pbe_v1.2.uspp.F.UPF
     MD5 check sum: Not computed, couldn't open file
     Pseudo is Ultrasoft + core correction, Zval =  6.0
     Generated by new atomic code, or converted to UPF format
     Using radial grid of  737 points,  5 beta functions with:
                l(1) =   0
                l(2) =   0
                l(3) =   1
                l(4) =   1
                l(5) =   2
     Q(r) pseudized with  8 coefficients,  rinner =    0.900   0.900   0.900
                                                       0.900   0.900

     atomic species   valence    mass     pseudopotential
     Y                11.00    88.90584     Y ( 1.00)
     Ba               10.00   137.32700     Ba( 1.00)
     Cu               19.00    63.54600     Cu( 1.00)
     Cu1              19.00    63.54600     Cu( 1.00)
     Cu2              19.00    63.54600     Cu( 1.00)
     O                 6.00    15.99900     O ( 1.00)

     Starting magnetic structure
     atomic species   magnetization
     Y               0.000
     Ba              0.000
     Cu              0.000
     Cu1             0.100
     Cu2            -0.100
     O               0.000

      4 Sym. Ops. (no inversion) found

                                    s                        frac. trans.

      isym =  1     identity

 cryst.   s( 1) = (     1          0          0      )
                  (     0          1          0      )
                  (     0          0          1      )

 cart.    s( 1) = (  1.0000000  0.0000000  0.0000000 )
                  (  0.0000000  1.0000000  0.0000000 )
                  (  0.0000000  0.0000000  1.0000000 )

      isym =  2     180 deg rotation - cart. axis [0,0,1]

[...]

      isym =  3     inv. 180 deg rotation - cart. axis [0,1,0]

[...]

     point group C_2v (mm2)
     there are  4 classes
     the character table:

       E     C2    s_v   s_v'
A_1    1.00  1.00  1.00  1.00
A_2    1.00  1.00 -1.00 -1.00
B_1    1.00 -1.00  1.00 -1.00
B_2    1.00 -1.00 -1.00  1.00

     the symmetry operations in each class and the name of the first element:

     E        1
          identity
     C2       2
          180 deg rotation - cart. axis [0,0,1]
     s_v      4
          inv. 180 deg rotation - cart. axis [1,0,0]
     s_v'     3
          inv. 180 deg rotation - cart. axis [0,1,0]

   Cartesian axes

     site n.     atom                  positions (alat units)
         1        Y      tau(   1) = (   0.5000000   0.5085307   1.5291325  )
         2        Ba     tau(   2) = (   0.5000000   0.5085307   0.5625067  )
         3        Ba     tau(   3) = (   0.5000000   0.5085307   2.4957584  )
         4        Cu     tau(   4) = (   0.0000000   0.0000000   0.0000000  )
         5        Cu1    tau(   5) = (   0.0000000   0.0000000   1.0857147  )
         6        Cu2    tau(   6) = (   0.0000000   0.0000000   1.9725504  )
         7        O      tau(   7) = (   0.5000000   0.0000000   1.1566053  )
         8        O      tau(   8) = (   0.5000000   0.0000000   1.9016598  )
         9        O      tau(   9) = (   0.0000000   0.5085307   1.1527518  )
        10        O      tau(  10) = (   0.0000000   0.5085307   1.9055132  )
        11        O      tau(  11) = (   0.0000000   0.5085307   0.0000000  )
        12        O      tau(  12) = (   0.0000000   0.0000000   0.4844292  )
        13        O      tau(  13) = (   0.0000000   0.0000000   2.5738359  )

   Crystallographic axes

     site n.     atom                  positions (cryst. coord.)
         1        Y      tau(   1) = (  0.5000000  0.5000000  0.5000000  )
         2        Ba     tau(   2) = (  0.5000000  0.5000000  0.1839300  )
         3        Ba     tau(   3) = (  0.5000000  0.5000000  0.8160700  )
         4        Cu     tau(   4) = (  0.0000000  0.0000000  0.0000000  )
         5        Cu1    tau(   5) = (  0.0000000  0.0000000  0.3550100  )
         6        Cu2    tau(   6) = (  0.0000000  0.0000000  0.6449900  )
         7        O      tau(   7) = (  0.5000000  0.0000000  0.3781900  )
         8        O      tau(   8) = (  0.5000000  0.0000000  0.6218100  )
         9        O      tau(   9) = (  0.0000000  0.5000000  0.3769300  )
        10        O      tau(  10) = (  0.0000000  0.5000000  0.6230700  )
        11        O      tau(  11) = (  0.0000000  0.5000000  0.0000000  )
        12        O      tau(  12) = (  0.0000000  0.0000000  0.1584000  )
        13        O      tau(  13) = (  0.0000000  0.0000000  0.8416000  )

     number of k points=     8  Methfessel-Paxton smearing, width (Ry)=  0.0200
                       cart. coord. in units 2pi/alat
        k(    1) = (   0.0000000   0.0000000   0.0000000), wk =   0.1250000
        k(    2) = (   0.0000000   0.0000000  -0.1634914), wk =   0.1250000
        k(    3) = (   0.0000000  -0.4916124   0.0000000), wk =   0.1250000
        k(    4) = (   0.0000000  -0.4916124  -0.1634914), wk =   0.1250000
        k(    5) = (  -0.5000000   0.0000000   0.0000000), wk =   0.1250000
        k(    6) = (  -0.5000000   0.0000000  -0.1634914), wk =   0.1250000
        k(    7) = (  -0.5000000  -0.4916124   0.0000000), wk =   0.1250000
        k(    8) = (  -0.5000000  -0.4916124  -0.1634914), wk =   0.1250000

                       cryst. coord.
        k(    1) = (   0.0000000   0.0000000   0.0000000), wk =   0.1250000
        k(    2) = (   0.0000000   0.0000000  -0.5000000), wk =   0.1250000
        k(    3) = (   0.0000000  -0.5000000   0.0000000), wk =   0.1250000
        k(    4) = (   0.0000000  -0.5000000  -0.5000000), wk =   0.1250000
        k(    5) = (  -0.5000000   0.0000000   0.0000000), wk =   0.1250000
        k(    6) = (  -0.5000000   0.0000000  -0.5000000), wk =   0.1250000
        k(    7) = (  -0.5000000  -0.5000000   0.0000000), wk =   0.1250000
        k(    8) = (  -0.5000000  -0.5000000  -0.5000000), wk =   0.1250000

     Initial potential from superposition of free atoms

     starting charge     126.9655, renormalised to     130.0000

     negative rho (up, down):  9.664E-02 9.664E-02

     HUBBARD ENERGY =    0.4410  (Ry)

     STARTING HUBBARD OCCUPATIONS:

     =================== HUBBARD OCCUPATIONS ===================
     ------------------------ ATOM    5 ------------------------
     Tr[ns(  5)] (up, down, total) =   5.00000  3.00000  8.00000
     Atomic magnetic moment for atom   5 =   2.00000
     SPIN  1
     eigenvalues:
       1.000  1.000  1.000  1.000  1.000
     eigenvectors (columns):
       1.000  0.000  0.000  0.000  0.000
       0.000  1.000  0.000  0.000  0.000
       0.000  0.000  1.000  0.000  0.000
       0.000  0.000  0.000  1.000  0.000
       0.000  0.000  0.000  0.000  1.000
     occupation matrix ns (before diag.):
       1.000  0.000  0.000  0.000  0.000
       0.000  1.000  0.000  0.000  0.000
       0.000  0.000  1.000  0.000  0.000
[...]

[...]

     total energy              =   -1671.32184420 Ry
     estimated scf accuracy    <          1.1E-10 Ry

[...]

     iteration # 74     ecut=    90.00 Ry     beta= 0.10
     Davidson diagonalization with overlap

     ethr =  1.00E-13,  avg # of iterations =  3.3

     =================== HUBBARD OCCUPATIONS ===================
     ------------------------ ATOM    5 ------------------------
     Tr[ns(  5)] (up, down, total) =   4.82422  4.46455  9.28876
     Atomic magnetic moment for atom   5 =   0.35967
     SPIN  1
     eigenvalues:
       0.906  0.957  0.986  0.986  0.989
     eigenvectors (columns):
      -0.074  0.997 -0.000 -0.000  0.000
      -0.000  0.000  0.000  1.000  0.000
      -0.000  0.000  1.000 -0.000  0.000
       0.997  0.074  0.000  0.000 -0.000
       0.000 -0.000 -0.000 -0.000  1.000
     occupation matrix ns (before diag.):
       0.957 -0.000 -0.000  0.004  0.000
      -0.000  0.986 -0.000  0.000  0.000
      -0.000 -0.000  0.986  0.000  0.000
       0.004  0.000  0.000  0.907 -0.000
       0.000  0.000  0.000 -0.000  0.989
     SPIN  2
     eigenvalues:
       0.552  0.956  0.985  0.985  0.988
     eigenvectors (columns):
      -0.025  1.000 -0.000 -0.000  0.000
      -0.000  0.000  0.000  1.000  0.000
      -0.000  0.000  1.000 -0.000  0.000
       1.000  0.025  0.000  0.000 -0.000
       0.000 -0.000 -0.000 -0.000  1.000
     occupation matrix ns (before diag.):
       0.955 -0.000 -0.000  0.010  0.000
      -0.000  0.985 -0.000  0.000  0.000
      -0.000 -0.000  0.985  0.000  0.000
       0.010  0.000  0.000  0.552 -0.000
       0.000  0.000  0.000 -0.000  0.988
     ------------------------ ATOM    6 ------------------------
     Tr[ns(  6)] (up, down, total) =   4.46454  4.82422  9.28876
     Atomic magnetic moment for atom   6 =  -0.35968
     SPIN  1
     eigenvalues:
       0.552  0.956  0.985  0.985  0.988
     eigenvectors (columns):
      -0.025  1.000 -0.000 -0.000  0.000
      -0.000  0.000  0.000  1.000  0.000
      -0.000  0.000  1.000 -0.000  0.000
       1.000  0.025  0.000  0.000 -0.000
       0.000 -0.000 -0.000 -0.000  1.000
     occupation matrix ns (before diag.):
       0.955 -0.000 -0.000  0.010  0.000
      -0.000  0.985 -0.000  0.000  0.000
      -0.000 -0.000  0.985  0.000  0.000
       0.010  0.000  0.000  0.552 -0.000
       0.000  0.000  0.000 -0.000  0.988
     SPIN  2
     eigenvalues:
       0.906  0.957  0.986  0.986  0.989
     eigenvectors (columns):
      -0.074  0.997 -0.000 -0.000  0.000
      -0.000  0.000  0.000  1.000  0.000
      -0.000  0.000  1.000 -0.000  0.000
       0.997  0.074  0.000  0.000 -0.000
       0.000 -0.000 -0.000 -0.000  1.000
     occupation matrix ns (before diag.):
       0.957 -0.000 -0.000  0.004  0.000
      -0.000  0.986 -0.000  0.000  0.000
      -0.000 -0.000  0.986  0.000  0.000
       0.004  0.000  0.000  0.907 -0.000
       0.000  0.000  0.000 -0.000  0.989

     Number of occupied Hubbard levels =   18.5775

[...]

     HUBBARD ENERGY =    0.1824  (Ry)

     Magnetic moment per site  (integrated on atomic sphere of radius R)
     atom   1 (R=0.258)  charge=  7.5604  magn= -0.0000
     atom   2 (R=0.296)  charge=  6.6010  magn= -0.0002
     atom   3 (R=0.296)  charge=  6.6010  magn=  0.0002
     atom   4 (R=0.198)  charge= 16.0621  magn= -0.0000
     atom   5 (R=0.208)  charge= 16.4105  magn=  0.3730
     atom   6 (R=0.208)  charge= 16.4105  magn= -0.3730
     atom   7 (R=0.198)  charge=  5.0451  magn=  0.0092
     atom   8 (R=0.198)  charge=  5.0451  magn= -0.0092
     atom   9 (R=0.198)  charge=  5.0396  magn=  0.0124
     atom  10 (R=0.198)  charge=  5.0396  magn= -0.0124
     atom  11 (R=0.198)  charge=  4.9490  magn=  0.0000
     atom  12 (R=0.198)  charge=  4.9747  magn= -0.0028
     atom  13 (R=0.198)  charge=  4.9747  magn=  0.0028

     End of self-consistent calculation

 ------ SPIN UP ------------

[...]

 ------ SPIN DOWN ----------

[...]

          k = 0.0000-0.4848-0.1609 ( 17588 PWs)   bands (ev):

[...]

          k =-0.4925-0.4848-0.1609 ( 17704 PWs)   bands (ev):

  -102.7446-101.7721-101.2241 -60.3429 -60.1241 -59.8664 -59.4400 -59.3895
   -58.7593 -58.7277 -58.6965 -58.4585 -31.0244 -15.6511 -15.6433 -11.4864
   -11.4500 -11.0875  -6.9869  -6.9541  -6.8889  -6.6456  -6.6264  -6.6002
    -6.5035  -1.5058  -1.5022  -1.4865  -1.3243  -1.1087  -0.9807   3.1564
     3.6266   3.8212   4.2088   4.5958   4.6756   5.1577   5.1765   5.2518
     5.3947   5.5550   5.6352   5.9007   5.9164   6.4866   6.6357   7.4098
     7.5598   7.7685   8.1076   8.2031   8.3747   8.4293   8.4952   8.6003
     8.7753   8.8900   8.9385   9.2409   9.3055   9.3318   9.4800   9.6079
    11.5733  11.7104  12.7191  12.9738  13.1098  15.3293  15.7161  15.7904
    15.9687  16.1481  16.3586  16.7869  16.8616  17.3271

     occupation numbers
     1.0000   1.0000   1.0000   1.0000   1.0000   1.0000   1.0000   1.0000
     1.0000   1.0000   1.0000   1.0000   1.0000   1.0000   1.0000   1.0000
     1.0000   1.0000   1.0000   1.0000   1.0000   1.0000   1.0000   1.0000
     1.0000   1.0000   1.0000   1.0000   1.0000   1.0000   1.0000   1.0000
     1.0000   1.0000   1.0000   1.0000   1.0000   1.0000   1.0000   1.0000
     1.0000   1.0000   1.0000   1.0000   1.0000   1.0000   1.0000   1.0000
     1.0000   1.0000   1.0000   1.0000   1.0000   1.0000   1.0000   1.0000
     1.0002   1.0015   1.0031   1.0346   1.0144   0.9952   0.7243   0.3395
    -0.0000  -0.0000  -0.0000  -0.0000  -0.0000  -0.0000  -0.0000  -0.0000
    -0.0000  -0.0000  -0.0000  -0.0000  -0.0000  -0.0000

     the Fermi energy is     9.5552 ev

!    total energy              =   -1671.32184420 Ry
     estimated scf accuracy    <          6.4E-11 Ry
     smearing contrib. (-TS)   =      -0.00214262 Ry
     internal energy E=F+TS    =   -1671.31970159 Ry

     The total energy is F=E-TS. E is the sum of the following terms:
     one-electron contribution =   -1329.24290025 Ry
     hartree contribution      =     736.54479874 Ry
     xc contribution           =    -250.60929779 Ry
     ewald contribution        =    -828.19472918 Ry
     Hubbard energy            =       0.18242689 Ry

     total magnetization       =    -0.00 Bohr mag/cell
     absolute magnetization    =     0.92 Bohr mag/cell

     convergence has been achieved in  74 iterations

     negative rho (up, down):  8.709E-02 8.709E-02

     Forces acting on atoms (cartesian axes, Ry/au):

     atom    1 type  1   force =     0.00000000    0.00000000    0.00000056
     atom    2 type  2   force =     0.00000000    0.00000000    0.00007182
     atom    3 type  2   force =     0.00000000    0.00000000   -0.00007318
     atom    4 type  3   force =     0.00000000    0.00000000   -0.00000060
     atom    5 type  4   force =     0.00000000    0.00000000   -0.00009217
     atom    6 type  5   force =     0.00000000    0.00000000    0.00009113
     atom    7 type  6   force =     0.00000000    0.00000000   -0.00025875
     atom    8 type  6   force =     0.00000000    0.00000000    0.00025957
     atom    9 type  6   force =     0.00000000    0.00000000   -0.00001487
     atom   10 type  6   force =     0.00000000    0.00000000    0.00001571
     atom   11 type  6   force =     0.00000000    0.00000000    0.00000078
     atom   12 type  6   force =     0.00000000    0.00000000    0.00014260
     atom   13 type  6   force =     0.00000000    0.00000000   -0.00014259
     The non-local contrib.  to forces
     atom    1 type  1   force =     0.00000000    0.00000000   -0.00000029
     atom    2 type  2   force =     0.00000000    0.00000000   -0.00464347
     atom    3 type  2   force =     0.00000000    0.00000000    0.00464061
     atom    4 type  3   force =     0.00000000    0.00000000    0.00000141
     atom    5 type  4   force =     0.00000000    0.00000000    0.01355244
     atom    6 type  5   force =     0.00000000    0.00000000   -0.01353670
     atom    7 type  6   force =     0.00000000    0.00000000    0.12493197
     atom    8 type  6   force =     0.00000000    0.00000000   -0.12492201
     atom    9 type  6   force =     0.00000000    0.00000000    0.15827220
     atom   10 type  6   force =     0.00000000    0.00000000   -0.15826131
     atom   11 type  6   force =     0.00000000    0.00000000    0.00000447
     atom   12 type  6   force =     0.00000000    0.00000000   -0.50333212
     atom   13 type  6   force =     0.00000000    0.00000000    0.50332890
     The ionic contribution  to forces
     atom    1 type  1   force =     0.00000000    0.00000000   -0.00002471
     atom    2 type  2   force =     0.00000000    0.00000000  -14.63491932
     atom    3 type  2   force =     0.00000000    0.00000000   14.63476864
     atom    4 type  3   force =    -0.00000000   -0.00000000    0.00025554
     atom    5 type  4   force =    -0.00000000   -0.00000000  -34.17356489
     atom    6 type  5   force =    -0.00000000   -0.00000000   34.17363253
     atom    7 type  6   force =     0.00000000   -0.00000000   -9.93804170
     atom    8 type  6   force =     0.00000000   -0.00000000    9.93787304
     atom    9 type  6   force =    -0.00000000    0.00000000  -10.08637897
     atom   10 type  6   force =    -0.00000000    0.00000000   10.08621688
     atom   11 type  6   force =    -0.00000000    0.00000000    0.00006721
     atom   12 type  6   force =    -0.00000000   -0.00000000    2.56238030
     atom   13 type  6   force =    -0.00000000   -0.00000000   -2.56226456
     The local contribution  to forces
     atom    1 type  1   force =     0.00000000    0.00000000    0.00002548
     atom    2 type  2   force =     0.00000000    0.00000000   14.63953584
     atom    3 type  2   force =     0.00000000    0.00000000  -14.63938393
     atom    4 type  3   force =    -0.00000000    0.00000000   -0.00025633
     atom    5 type  4   force =    -0.00000000    0.00000000   34.15304818
     atom    6 type  5   force =    -0.00000000   -0.00000000  -34.15313396
     atom    7 type  6   force =     0.00000000   -0.00000000    9.81304563
     atom    8 type  6   force =     0.00000000    0.00000000   -9.81288613
     atom    9 type  6   force =     0.00000000    0.00000000    9.92850729
     atom   10 type  6   force =    -0.00000000    0.00000000   -9.92835522
     atom   11 type  6   force =    -0.00000000    0.00000000   -0.00007045
     atom   12 type  6   force =    -0.00000000    0.00000000   -2.06154484
     atom   13 type  6   force =    -0.00000000    0.00000000    2.06143218
     The core correction contribution to forces
     atom    1 type  1   force =    -0.00000000   -0.00000000    0.00000000
     atom    2 type  2   force =    -0.00000000   -0.00000000    0.00050769
     atom    3 type  2   force =    -0.00000000   -0.00000000   -0.00050765
     atom    4 type  3   force =    -0.00000000    0.00000000   -0.00000001
     atom    5 type  4   force =    -0.00000000   -0.00000000   -0.00001793
     atom    6 type  5   force =    -0.00000000    0.00000000    0.00001789
     atom    7 type  6   force =     0.00000000    0.00000000   -0.00049209
     atom    8 type  6   force =     0.00000000   -0.00000000    0.00049201
     atom    9 type  6   force =     0.00000000    0.00000000   -0.00070087
     atom   10 type  6   force =    -0.00000000    0.00000000    0.00070077
     atom   11 type  6   force =    -0.00000000    0.00000000   -0.00000005
     atom   12 type  6   force =    -0.00000000   -0.00000000    0.00294933
     atom   13 type  6   force =    -0.00000000   -0.00000000   -0.00294931
     The Hubbard contrib.    to forces
     atom    1 type  1   force =     0.00000000    0.00000000    0.00000001
     atom    2 type  2   force =     0.00000000    0.00000000   -0.00040961
     atom    3 type  2   force =     0.00000000    0.00000000    0.00040962
     atom    4 type  3   force =     0.00000000    0.00000000    0.00000000
     atom    5 type  4   force =     0.00000000    0.00000000    0.00689499
     atom    6 type  5   force =     0.00000000    0.00000000   -0.00689443
     atom    7 type  6   force =     0.00000000    0.00000000    0.00029652
     atom    8 type  6   force =     0.00000000    0.00000000   -0.00029654
     atom    9 type  6   force =     0.00000000    0.00000000    0.00028427
     atom   10 type  6   force =     0.00000000    0.00000000   -0.00028428
     atom   11 type  6   force =     0.00000000    0.00000000    0.00000000
     atom   12 type  6   force =     0.00000000    0.00000000   -0.00031332
     atom   13 type  6   force =     0.00000000    0.00000000    0.00031334
     The SCF correction term to forces
     atom    1 type  1   force =    -0.00000000   -0.00000000    0.00000008
     atom    2 type  2   force =     0.00000000    0.00000000    0.00000070
     atom    3 type  2   force =     0.00000000    0.00000000   -0.00000047
     atom    4 type  3   force =    -0.00000000   -0.00000000   -0.00000121
     atom    5 type  4   force =     0.00000000   -0.00000000   -0.00000496
     atom    6 type  5   force =    -0.00000000   -0.00000000    0.00000580
     atom    7 type  6   force =     0.00000000    0.00000000    0.00000093
     atom    8 type  6   force =     0.00000000   -0.00000000   -0.00000080
     atom    9 type  6   force =    -0.00000000    0.00000000    0.00000122
     atom   10 type  6   force =    -0.00000000   -0.00000000   -0.00000111
     atom   11 type  6   force =     0.00000000   -0.00000000   -0.00000039
     atom   12 type  6   force =     0.00000000   -0.00000000    0.00000326
     atom   13 type  6   force =     0.00000000    0.00000000   -0.00000312

     Total force =     0.000450     Total SCF correction =     0.000009

     Computing stress (Cartesian axis) and pressure

     negative rho (up, down):  8.709E-02 8.709E-02
          total   stress  (Ry/bohr**3)                   (kbar)     P=        0.40
   0.00000013   0.00000000   0.00000000            0.02        0.00        0.00
   0.00000000   0.00000232   0.00000000            0.00        0.34        0.00
   0.00000000   0.00000000   0.00000580            0.00        0.00        0.85

     kinetic stress (kbar)  22045.63      0.00      0.00
                                0.00  21862.41      0.00
                                0.00      0.00  22171.37

     local   stress (kbar) -25555.22     -0.00      0.00
                               -0.00 -43036.96     -0.00
                                0.00     -0.00   5550.93

     nonloc. stress (kbar)  11227.86      0.00      0.00
                                0.00  11216.71      0.00
                                0.00      0.00  11393.22

     hartree stress (kbar)  31830.78     -0.00      0.00
                               -0.00  39660.17     -0.00
                                0.00     -0.00  16996.34

     exc-cor stress (kbar)   -468.09      0.00     -0.00
                                0.00   -462.80      0.00
                               -0.00      0.00   -471.57

     corecor stress (kbar)  -7493.25      0.00     -0.00
                                0.00  -7493.16      0.00
                               -0.00      0.00  -7494.19

     ewald   stress (kbar) -30952.94      0.00     -0.00
                                0.00 -21106.75      0.00
                               -0.00      0.00 -47438.27

     hubbard stress (kbar)   -634.75      0.00      0.00
                                0.00   -639.29      0.00
                                0.00      0.00   -706.98

     DFT-D   stress (kbar)      0.00      0.00      0.00
                                0.00      0.00      0.00
                                0.00      0.00      0.00

     XDM     stress (kbar)      0.00      0.00      0.00
                                0.00      0.00      0.00
                                0.00      0.00      0.00

     dft-nl  stress (kbar)      0.00      0.00      0.00
                                0.00      0.00      0.00
                                0.00      0.00      0.00

     TS-vdW  stress (kbar)      0.00      0.00      0.00
                                0.00      0.00      0.00
                                0.00      0.00      0.00

     MDB     stress (kbar)      0.00      0.00      0.00
                                0.00      0.00      0.00
                                0.00      0.00      0.00

     3D-RISM stress (kbar)      0.00      0.00      0.00
                                0.00      0.00      0.00
                                0.00      0.00      0.00

     Writing all to output data dir ./YBCO.vc-relax/YBCO.vc-relax.save/

     General routines

     Parallel routines

     Hubbard U routines
                                        0.00s GPU  (      18 calls)

   This run was terminated on:   3: 7:47  16Dec2023

   JOB DONE.