     Program PWSCF v.7.2 starts on 29Dec2023 at  0:14:50

     Waiting for input...
     Reading input from standard input

     Current dimensions of program PWSCF are:
     Max number of different atomic species (ntypx) = 10
     Max number of k-points (npk) =  40000
     Max angular momentum in pseudopotentials (lmaxx) =  4

     R & G space division:  proc/nbgrp/npool/nimage =       4
     Subspace diagonalization in iterative solution of the eigenvalue problem:
     a serial algorithm will be used

     Using Slab Decomposition

     bravais-lattice index     =            6
     lattice parameter (alat)  =       7.2193  a.u.
     unit-cell volume          =    1150.7053 (a.u.)^3
     number of atoms/cell      =           12
     number of atomic types    =            4
     number of electrons       =       124.00
     number of Kohn-Sham states=           74
     kinetic-energy cutoff     =      90.0000  Ry
     charge density cutoff     =     720.0000  Ry
     scf convergence threshold =      1.0E-08
     mixing beta               =       0.1000
     number of iterations used =            8  plain     mixing
     energy convergence thresh.=      1.0E-04
     force convergence thresh. =      1.0E-03
     press convergence thresh. =      5.0E-01
     Exchange-correlation= SLA  PW   PBE  PBE
                           (   1   4   3   4   0   0   0)
     nstep                     =           50

     celldm(1)=   7.219321  celldm(2)=   0.000000  celldm(3)=   3.058265
     celldm(4)=   0.000000  celldm(5)=   0.000000  celldm(6)=   0.000000

     crystal axes: (cart. coord. in units of alat)
               a(1) = (   1.000000   0.000000   0.000000 )
               a(2) = (   0.000000   1.000000   0.000000 )
               a(3) = (   0.000000   0.000000   3.058265 )

     reciprocal axes: (cart. coord. in units 2 pi/alat)
               b(1) = (  1.000000  0.000000  0.000000 )
               b(2) = (  0.000000  1.000000  0.000000 )
               b(3) = (  0.000000  0.000000  0.326983 )

     PseudoPot. # 1 for Y  read from file:
     ~/q-e/pseudo/all_pbe_UPF_v1.5/y_pbe_v1.4.uspp.F.UPF
     MD5 check sum: Not computed, couldn't open file
     Pseudo is Ultrasoft + core correction, Zval = 11.0
     Generated by new atomic code, or converted to UPF format
     Using radial grid of  885 points,  6 beta functions with:
                l(1) =   0
                l(2) =   0
                l(3) =   1
                l(4) =   1
                l(5) =   2
                l(6) =   2
     Q(r) pseudized with  8 coefficients,  rinner =    1.200   1.200   1.200
                                                       1.200   1.200

     PseudoPot. # 2 for Ba read from file:
     ~/q-e/pseudo/all_pbe_UPF_v1.5/ba_pbe_v1.uspp.F.UPF
     MD5 check sum: Not computed, couldn't open file
     Pseudo is Ultrasoft + core correction, Zval = 10.0
     Generated by new atomic code, or converted to UPF format
     Using radial grid of  907 points,  7 beta functions with:
                l(1) =   0
                l(2) =   0
                l(3) =   1
                l(4) =   1
                l(5) =   2
                l(6) =   2
                l(7) =   3
     Q(r) pseudized with  6 coefficients,  rinner =    1.700   1.700   1.700
                                                       1.700   1.700   1.700
                                                       1.700

     PseudoPot. # 3 for Cu read from file:
     ~/q-e/pseudo/all_pbe_UPF_v1.5/cu_pbe_v1.2.uspp.F.UPF
     MD5 check sum: Not computed, couldn't open file
     Pseudo is Ultrasoft + core correction, Zval = 19.0
     Generated by new atomic code, or converted to UPF format
     Using radial grid of  867 points,  6 beta functions with:
                l(1) =   0
                l(2) =   0
                l(3) =   1
                l(4) =   1
                l(5) =   2
                l(6) =   2
     Q(r) pseudized with  8 coefficients,  rinner =    1.150   1.150   1.150
                                                       1.150   1.150

     PseudoPot. # 4 for O  read from file:
     ~/q-e/pseudo/all_pbe_UPF_v1.5/o_pbe_v1.2.uspp.F.UPF
     MD5 check sum: Not computed, couldn't open file
     Pseudo is Ultrasoft + core correction, Zval =  6.0
     Generated by new atomic code, or converted to UPF format
     Using radial grid of  737 points,  5 beta functions with:
                l(1) =   0
                l(2) =   0
                l(3) =   1
                l(4) =   1
                l(5) =   2
     Q(r) pseudized with  8 coefficients,  rinner =    0.900   0.900   0.900
                                                       0.900   0.900

     atomic species   valence    mass     pseudopotential
     Y                11.00    88.90584     Y ( 1.00)
     Ba               10.00   137.32700     Ba( 1.00)
     Cu               19.00    63.54600     Cu( 1.00)
     O                 6.00    15.99900     O ( 1.00)

      8 Sym. Ops., with inversion, found

                                    s                        frac. trans.

      isym =  1     identity

 cryst.   s( 1) = (     1          0          0      )
                  (     0          1          0      )
                  (     0          0          1      )

 cart.    s( 1) = (  1.0000000  0.0000000  0.0000000 )
                  (  0.0000000  1.0000000  0.0000000 )
                  (  0.0000000  0.0000000  1.0000000 )

      isym =  2     180 deg rotation - cart. axis [0,0,1]

[...]

      isym =  5     inversion

[...]

      isym =  6     inv. 180 deg rotation - cart. axis [0,0,1]

[...]

     point group D_2h (mmm)
     there are  8 classes
     the character table:

       E     C2    C2'   C2''  i     s_v   s_v'  s_v''
A_g    1.00  1.00  1.00  1.00  1.00  1.00  1.00  1.00
B_1g   1.00  1.00 -1.00 -1.00  1.00  1.00 -1.00 -1.00
B_2g   1.00 -1.00  1.00 -1.00  1.00 -1.00  1.00 -1.00
B_3g   1.00 -1.00 -1.00  1.00  1.00 -1.00 -1.00  1.00
A_u    1.00  1.00  1.00  1.00 -1.00 -1.00 -1.00 -1.00
B_1u   1.00  1.00 -1.00 -1.00 -1.00 -1.00  1.00  1.00
B_2u   1.00 -1.00  1.00 -1.00 -1.00  1.00 -1.00  1.00
B_3u   1.00 -1.00 -1.00  1.00 -1.00  1.00  1.00 -1.00

     the symmetry operations in each class and the name of the first element:

     E        1
          identity
     C2       2
          180 deg rotation - cart. axis [0,0,1]
     C2'      4
          180 deg rotation - cart. axis [1,0,0]
     C2''     3
          180 deg rotation - cart. axis [0,1,0]
     i        5
          inversion
     s_v      6
          inv. 180 deg rotation - cart. axis [0,0,1]
     s_v'     8
          inv. 180 deg rotation - cart. axis [1,0,0]
     s_v''    7
          inv. 180 deg rotation - cart. axis [0,1,0]

   Cartesian axes

     site n.     atom                  positions (alat units)
         1        Y      tau(   1) = (   0.5000000   0.5000000   1.5291325  )
         2        Ba     tau(   2) = (   0.5000000   0.5000000   0.5625067  )
         3        Ba     tau(   3) = (   0.5000000   0.5000000   2.4957584  )
         4        Cu     tau(   4) = (   0.0000000   0.0000000   0.0000000  )
         5        Cu     tau(   5) = (   0.0000000   0.0000000   1.0857147  )
         6        Cu     tau(   6) = (   0.0000000   0.0000000   1.9725504  )
         7        O      tau(   7) = (   0.5000000   0.0000000   1.1566053  )
         8        O      tau(   8) = (   0.5000000   0.0000000   1.9016598  )
         9        O      tau(   9) = (   0.0000000   0.5000000   1.1527518  )
        10        O      tau(  10) = (   0.0000000   0.5000000   1.9055132  )
        11        O      tau(  11) = (   0.0000000   0.0000000   0.4844292  )
        12        O      tau(  12) = (   0.0000000   0.0000000   2.5738359  )

   Crystallographic axes

     site n.     atom                  positions (cryst. coord.)
         1        Y      tau(   1) = (  0.5000000  0.5000000  0.5000000  )
         2        Ba     tau(   2) = (  0.5000000  0.5000000  0.1839300  )
         3        Ba     tau(   3) = (  0.5000000  0.5000000  0.8160700  )
         4        Cu     tau(   4) = (  0.0000000  0.0000000  0.0000000  )
         5        Cu     tau(   5) = (  0.0000000  0.0000000  0.3550100  )
         6        Cu     tau(   6) = (  0.0000000  0.0000000  0.6449900  )
         7        O      tau(   7) = (  0.5000000  0.0000000  0.3781900  )
         8        O      tau(   8) = (  0.5000000  0.0000000  0.6218100  )
         9        O      tau(   9) = (  0.0000000  0.5000000  0.3769300  )
        10        O      tau(  10) = (  0.0000000  0.5000000  0.6230700  )
        11        O      tau(  11) = (  0.0000000  0.0000000  0.1584000  )
        12        O      tau(  12) = (  0.0000000  0.0000000  0.8416000  )

     number of k points=     8  Methfessel-Paxton smearing, width (Ry)=  0.0100
                       cart. coord. in units 2pi/alat
        k(    1) = (   0.0000000   0.0000000   0.0000000), wk =   0.2500000
        k(    2) = (   0.0000000   0.0000000  -0.1634914), wk =   0.2500000
        k(    3) = (   0.0000000  -0.5000000   0.0000000), wk =   0.2500000
        k(    4) = (   0.0000000  -0.5000000  -0.1634914), wk =   0.2500000
        k(    5) = (  -0.5000000  -0.5000000   0.0000000), wk =   0.2500000
        k(    6) = (  -0.5000000  -0.5000000  -0.1634914), wk =   0.2500000
        k(    7) = (  -0.5000000   0.0000000   0.0000000), wk =   0.2500000
        k(    8) = (  -0.5000000   0.0000000   0.1634914), wk =   0.2500000

                       cryst. coord.
        k(    1) = (   0.0000000   0.0000000   0.0000000), wk =   0.2500000
        k(    2) = (   0.0000000   0.0000000  -0.5000000), wk =   0.2500000
        k(    3) = (   0.0000000  -0.5000000   0.0000000), wk =   0.2500000
        k(    4) = (   0.0000000  -0.5000000  -0.5000000), wk =   0.2500000
        k(    5) = (  -0.5000000  -0.5000000   0.0000000), wk =   0.2500000
        k(    6) = (  -0.5000000  -0.5000000  -0.5000000), wk =   0.2500000
        k(    7) = (  -0.5000000   0.0000000   0.0000000), wk =   0.2500000
        k(    8) = (  -0.5000000   0.0000000   0.5000000), wk =   0.2500000

     Initial potential from superposition of free atoms

     starting charge     120.9655, renormalised to     124.0000

     negative rho (up, down):  1.934E-01 0.000E+00
     Starting wfcs are  102 randomized atomic wfcs

     Self-consistent Calculation

     iteration #  1     ecut=    90.00 Ry     beta= 0.10
     Davidson diagonalization with overlap

     ethr =  1.00E-02,  avg # of iterations =  2.1

     negative rho (up, down):  1.912E-01 0.000E+00

     total energy              =   -1639.41836595 Ry
     estimated scf accuracy    <       1.91668154 Ry

[...]

     c_bands:  1 eigenvalues not converged
     ethr =  8.10E-05,  avg # of iterations = 11.2

[...]

     End of self-consistent calculation

          k = 0.0000 0.0000 0.0000 ( 16559 PWs)   bands (ev):

  -101.1811-101.1811-101.0848 -58.7172 -58.7172 -58.7161 -58.7161 -58.5977
   -58.4317 -58.4315 -58.2936 -58.2930 -29.8876 -15.5360 -15.5208 -10.4816
    -9.8871  -9.8838  -7.2808  -6.3032  -6.2834  -6.0669  -6.0211  -5.7592
    -1.0303  -0.7351  -0.4213  -0.4199  -0.4066  -0.4052   5.8502   6.1321
[...]

     E        1
          identity
     C2       2
          180 deg rotation - cart. axis [0,0,1]
     C2'      4
          180 deg rotation - cart. axis [1,0,0]
     C2''     3
          180 deg rotation - cart. axis [0,1,0]
     i        5
          inversion
     s_v      6
          inv. 180 deg rotation - cart. axis [0,0,1]
     s_v'     8
          inv. 180 deg rotation - cart. axis [1,0,0]
     s_v''    7
          inv. 180 deg rotation - cart. axis [0,1,0]

   Cartesian axes

     site n.     atom                  positions (alat units)
         1        Y      tau(   1) = (   0.5102186   0.5101848   1.5847397  )
         2        Ba     tau(   2) = (   0.5102186   0.5101848   0.6405254  )
         3        Ba     tau(   3) = (   0.5102186   0.5101848   2.5289540  )
         4        Cu     tau(   4) = (   0.0000000   0.0000000   0.0000000  )
         5        Cu     tau(   5) = (   0.0000000   0.0000000   1.1952436  )
         6        Cu     tau(   6) = (   0.0000000   0.0000000   1.9742359  )
         7        O      tau(   7) = (   0.5102186   0.0000000   1.2072977  )
         8        O      tau(   8) = (   0.5102186   0.0000000   1.9621817  )
         9        O      tau(   9) = (   0.0000000   0.5101848   1.2074396  )
        10        O      tau(  10) = (   0.0000000   0.5101848   1.9620399  )
        11        O      tau(  11) = (   0.0000000   0.0000000   0.4702128  )
        12        O      tau(  12) = (   0.0000000   0.0000000   2.6992667  )

   Crystallographic axes

     site n.     atom                  positions (cryst. coord.)
         1        Y      tau(   1) = (  0.5000000  0.5000000  0.5000000  )
         2        Ba     tau(   2) = (  0.5000000  0.5000000  0.2020917  )
         3        Ba     tau(   3) = (  0.5000000  0.5000000  0.7979083  )
         4        Cu     tau(   4) = (  0.0000000  0.0000000  0.0000000  )
         5        Cu     tau(   5) = (  0.0000000  0.0000000  0.3771104  )
         6        Cu     tau(   6) = (  0.0000000  0.0000000  0.6228896  )
         7        O      tau(   7) = (  0.5000000  0.0000000  0.3809136  )
         8        O      tau(   8) = (  0.5000000  0.0000000  0.6190864  )
         9        O      tau(   9) = (  0.0000000  0.5000000  0.3809583  )
        10        O      tau(  10) = (  0.0000000  0.5000000  0.6190417  )
        11        O      tau(  11) = (  0.0000000  0.0000000  0.1483565  )
        12        O      tau(  12) = (  0.0000000  0.0000000  0.8516435  )

     number of k points=     8  Methfessel-Paxton smearing, width (Ry)=  0.0100
                       cart. coord. in units 2pi/alat
        k(    1) = (   0.0000000   0.0000000   0.0000000), wk =   0.2500000
        k(    2) = (   0.0000000   0.0000000  -0.1577546), wk =   0.2500000
        k(    3) = (   0.0000000  -0.4900185   0.0000000), wk =   0.2500000
        k(    4) = (   0.0000000  -0.4900185  -0.1577546), wk =   0.2500000
        k(    5) = (  -0.4899860  -0.4900185   0.0000000), wk =   0.2500000
        k(    6) = (  -0.4899860  -0.4900185  -0.1577546), wk =   0.2500000
        k(    7) = (  -0.4899860   0.0000000   0.0000000), wk =   0.2500000
        k(    8) = (  -0.4899860   0.0000000   0.1577546), wk =   0.2500000

                       cryst. coord.
        k(    1) = (   0.0000000   0.0000000   0.0000000), wk =   0.2500000
        k(    2) = (   0.0000000   0.0000000  -0.5000000), wk =   0.2500000
        k(    3) = (   0.0000000  -0.5000000   0.0000000), wk =   0.2500000
        k(    4) = (   0.0000000  -0.5000000  -0.5000000), wk =   0.2500000
        k(    5) = (  -0.5000000  -0.5000000   0.0000000), wk =   0.2500000
        k(    6) = (  -0.5000000  -0.5000000  -0.5000000), wk =   0.2500000
        k(    7) = (  -0.5000000   0.0000000   0.0000000), wk =   0.2500000
        k(    8) = (  -0.5000000   0.0000000   0.5000000), wk =   0.2500000

     Initial potential from superposition of free atoms

     starting charge     120.9655, renormalised to     124.0000

     negative rho (up, down):  1.936E-01 0.000E+00
     Starting wfcs are  102 randomized atomic wfcs

     Self-consistent Calculation

[...]

     c_bands:  1 eigenvalues not converged
     c_bands:  1 eigenvalues not converged
     c_bands:  1 eigenvalues not converged
     c_bands:  1 eigenvalues not converged
     c_bands:  1 eigenvalues not converged
     c_bands:  1 eigenvalues not converged
     ethr =  1.00E-06,  avg # of iterations = 18.9

[...]

     total energy              =   -1639.33025541 Ry
     estimated scf accuracy    <          1.6E-10 Ry

     iteration # 40     ecut=    90.00 Ry     beta= 0.10
     Davidson diagonalization with overlap

     ethr =  1.27E-13,  avg # of iterations =  4.0

[...]

     End of self-consistent calculation

[...]

          k = 0.0000-0.4900-0.1578 ( 17932 PWs)   bands (ev):

[...]

          k =-0.4900 0.0000 0.1578 ( 17932 PWs)   bands (ev):

  -102.4209-102.4207-101.9398 -59.8999 -59.8998 -59.8996 -59.8995 -59.6561
   -59.6520 -59.5286 -59.2363 -59.2362 -31.5321 -16.5316 -16.5281 -12.0234
   -11.7921 -11.5089  -7.8373  -7.7494  -7.3975  -7.2752  -7.1824  -6.9936
    -1.8816  -1.8465  -1.7461  -1.6992  -1.3435  -1.3369   3.8768   4.0615
     5.1599   5.3507   5.4224   5.6070   6.0539   6.1522   6.2265   6.3428
     6.3973   6.4294   6.5233   6.7907   7.1886   7.2533   7.2826   7.3602
     7.4413   7.7301   7.8893   7.9820   8.0657   8.0856   8.6065   8.6235
     8.6617   8.9601   9.1511   9.1902   9.2299   9.2552   9.6959  11.8045
    13.8507  14.0577  14.5538  14.7362  15.0412  15.1530  15.2610  15.6389
    16.2216  16.2724

     occupation numbers
     1.0000   1.0000   1.0000   1.0000   1.0000   1.0000   1.0000   1.0000
     1.0000   1.0000   1.0000   1.0000   1.0000   1.0000   1.0000   1.0000
     1.0000   1.0000   1.0000   1.0000   1.0000   1.0000   1.0000   1.0000
     1.0000   1.0000   1.0000   1.0000   1.0000   1.0000   1.0000   1.0000
     1.0000   1.0000   1.0000   1.0000   1.0000   1.0000   1.0000   1.0000
     1.0000   1.0000   1.0000   1.0000   1.0000   1.0000   1.0000   1.0000
     1.0000   1.0000   1.0000   1.0000   1.0000   1.0000   1.0000   1.0000
     1.0000   1.0000   1.0000   1.0000   1.0000   1.0001   0.3898  -0.0000
    -0.0000  -0.0000  -0.0000  -0.0000  -0.0000  -0.0000  -0.0000  -0.0000
    -0.0000  -0.0000

     the Fermi energy is     9.6780 ev

!    total energy              =   -1639.33025699 Ry
     estimated scf accuracy    <          3.9E-11 Ry
     smearing contrib. (-TS)   =      -0.00217148 Ry
     internal energy E=F+TS    =   -1639.32808552 Ry

     The total energy is F=E-TS. E is the sum of the following terms:
     one-electron contribution =   -1504.70495413 Ry
     hartree contribution      =     816.96562573 Ry
     xc contribution           =    -243.33974829 Ry
     ewald contribution        =    -708.24900883 Ry

     convergence has been achieved in  40 iterations

     negative rho (up, down):  1.739E-01 0.000E+00

     Forces acting on atoms (cartesian axes, Ry/au):

     atom    1 type  1   force =     0.00000000    0.00000000    0.00000000
     atom    2 type  2   force =     0.00000000    0.00000000    0.00015200
     atom    3 type  2   force =     0.00000000    0.00000000   -0.00015200
     atom    4 type  3   force =     0.00000000    0.00000000    0.00000000
     atom    5 type  3   force =     0.00000000    0.00000000   -0.00029642
     atom    6 type  3   force =     0.00000000    0.00000000    0.00029642
     atom    7 type  4   force =     0.00000000    0.00000000    0.00012439
     atom    8 type  4   force =     0.00000000    0.00000000   -0.00012439
     atom    9 type  4   force =     0.00000000    0.00000000   -0.00002144
     atom   10 type  4   force =     0.00000000    0.00000000    0.00002144
     atom   11 type  4   force =     0.00000000    0.00000000   -0.00013179
     atom   12 type  4   force =     0.00000000    0.00000000    0.00013179
     The non-local contrib.  to forces
     atom    1 type  1   force =     0.00000000    0.00000000    0.00000000
     atom    2 type  2   force =     0.00000000    0.00000000   -0.04330762
     atom    3 type  2   force =     0.00000000    0.00000000    0.04330762
     atom    4 type  3   force =     0.00000000    0.00000000    0.00000000
     atom    5 type  3   force =     0.00000000    0.00000000   -0.05160273
     atom    6 type  3   force =     0.00000000    0.00000000    0.05160273
     atom    7 type  4   force =     0.00000000    0.00000000    0.13248741
     atom    8 type  4   force =     0.00000000    0.00000000   -0.13248741
     atom    9 type  4   force =     0.00000000    0.00000000    0.13192672
     atom   10 type  4   force =     0.00000000    0.00000000   -0.13192672
     atom   11 type  4   force =     0.00000000    0.00000000   -0.60383708
     atom   12 type  4   force =     0.00000000    0.00000000    0.60383708
     The ionic contribution  to forces
     atom    1 type  1   force =    -0.00000000   -0.00000000    0.00000000
     atom    2 type  2   force =    -0.00000000   -0.00000000  -27.25256974
     atom    3 type  2   force =    -0.00000000   -0.00000000   27.25256974
     atom    4 type  3   force =     0.00000000    0.00000000    0.00000000
     atom    5 type  3   force =     0.00000000    0.00000000  -47.53240815
     atom    6 type  3   force =     0.00000000    0.00000000   47.53240815
     atom    7 type  4   force =    -0.00000000    0.00000000  -14.85269992
     atom    8 type  4   force =    -0.00000000    0.00000000   14.85269992
     atom    9 type  4   force =     0.00000000   -0.00000000  -14.84627087
     atom   10 type  4   force =     0.00000000   -0.00000000   14.84627087
     atom   11 type  4   force =     0.00000000    0.00000000   -1.14053779
     atom   12 type  4   force =     0.00000000    0.00000000    1.14053779
     The local contribution  to forces
     atom    1 type  1   force =    -0.00000000   -0.00000000    0.00000000
     atom    2 type  2   force =    -0.00000000   -0.00000000   27.29525292
     atom    3 type  2   force =    -0.00000000   -0.00000000  -27.29525292
     atom    4 type  3   force =    -0.00000000    0.00000000    0.00000000
     atom    5 type  3   force =    -0.00000000    0.00000000   47.58378321
     atom    6 type  3   force =    -0.00000000   -0.00000000  -47.58378321
     atom    7 type  4   force =    -0.00000000    0.00000000   14.72084288
     atom    8 type  4   force =    -0.00000000    0.00000000  -14.72084288
     atom    9 type  4   force =    -0.00000000   -0.00000000   14.71482386
     atom   10 type  4   force =    -0.00000000   -0.00000000  -14.71482386
     atom   11 type  4   force =    -0.00000000    0.00000000    1.74059459
     atom   12 type  4   force =     0.00000000    0.00000000   -1.74059459
     The core correction contribution to forces
     atom    1 type  1   force =     0.00000000    0.00000000   -0.00000000
     atom    2 type  2   force =     0.00000000    0.00000000    0.00076065
     atom    3 type  2   force =     0.00000000    0.00000000   -0.00076065
     atom    4 type  3   force =    -0.00000000    0.00000000    0.00000000
     atom    5 type  3   force =    -0.00000000    0.00000000   -0.00008193
     atom    6 type  3   force =    -0.00000000    0.00000000    0.00008193
     atom    7 type  4   force =    -0.00000000   -0.00000000   -0.00050907
     atom    8 type  4   force =    -0.00000000    0.00000000    0.00050907
     atom    9 type  4   force =    -0.00000000   -0.00000000   -0.00050417
     atom   10 type  4   force =    -0.00000000   -0.00000000    0.00050417
     atom   11 type  4   force =     0.00000000    0.00000000    0.00364729
     atom   12 type  4   force =     0.00000000    0.00000000   -0.00364729
     The Hubbard contrib.    to forces
     atom    1 type  1   force =     0.00000000    0.00000000    0.00000000
     atom    2 type  2   force =     0.00000000    0.00000000    0.00000000
     atom    3 type  2   force =     0.00000000    0.00000000    0.00000000
     atom    4 type  3   force =     0.00000000    0.00000000    0.00000000
     atom    5 type  3   force =     0.00000000    0.00000000    0.00000000
     atom    6 type  3   force =     0.00000000    0.00000000    0.00000000
     atom    7 type  4   force =     0.00000000    0.00000000    0.00000000
     atom    8 type  4   force =     0.00000000    0.00000000    0.00000000
     atom    9 type  4   force =     0.00000000    0.00000000    0.00000000
     atom   10 type  4   force =     0.00000000    0.00000000    0.00000000
     atom   11 type  4   force =     0.00000000    0.00000000    0.00000000
     atom   12 type  4   force =     0.00000000    0.00000000    0.00000000
     The SCF correction term to forces
     atom    1 type  1   force =    -0.00000000   -0.00000000    0.00000000
     atom    2 type  2   force =    -0.00000000   -0.00000000    0.00001579
     atom    3 type  2   force =     0.00000000    0.00000000   -0.00001579
     atom    4 type  3   force =     0.00000000    0.00000000    0.00000000
     atom    5 type  3   force =    -0.00000000    0.00000000    0.00001317
     atom    6 type  3   force =    -0.00000000    0.00000000   -0.00001317
     atom    7 type  4   force =    -0.00000000   -0.00000000    0.00000309
     atom    8 type  4   force =     0.00000000    0.00000000   -0.00000309
     atom    9 type  4   force =     0.00000000    0.00000000    0.00000302
     atom   10 type  4   force =    -0.00000000    0.00000000   -0.00000302
     atom   11 type  4   force =    -0.00000000    0.00000000    0.00000120
     atom   12 type  4   force =    -0.00000000   -0.00000000   -0.00000120

     Total force =     0.000537     Total SCF correction =     0.000030

     Computing stress (Cartesian axis) and pressure

     negative rho (up, down):  1.739E-01 0.000E+00
          total   stress  (Ry/bohr**3)                   (kbar)     P=        0.77
   0.00000438   0.00000000   0.00000000            0.64        0.00        0.00
   0.00000000   0.00000477   0.00000000            0.00        0.70        0.00
   0.00000000   0.00000000   0.00000655            0.00        0.00        0.96

     kinetic stress (kbar)  20575.36      0.00      0.00
                                0.00  20575.31      0.00
                                0.00      0.00  20615.39

     local   stress (kbar) -52381.96     -0.00     -0.00
                               -0.00 -52387.71      0.00
                               -0.00      0.00  21932.41

     nonloc. stress (kbar)  10300.03      0.00      0.00
                                0.00  10300.11      0.00
                                0.00      0.00  10334.09

     hartree stress (kbar)  44259.59     -0.00     -0.00
                               -0.00  44262.36      0.00
                               -0.00      0.00   8263.63

     exc-cor stress (kbar)   -221.71     -0.00     -0.00
                               -0.00   -221.71      0.00
                               -0.00      0.00   -225.97

     corecor stress (kbar)  -7356.77      0.00     -0.00
                                0.00  -7356.77     -0.00
                               -0.00     -0.00  -7357.39

     ewald   stress (kbar) -15173.90     -0.00      0.00
                               -0.00 -15170.89     -0.00
                                0.00     -0.00 -53561.18

     hubbard stress (kbar)      0.00      0.00      0.00
                                0.00      0.00      0.00
                                0.00      0.00      0.00

     DFT-D   stress (kbar)      0.00      0.00      0.00
                                0.00      0.00      0.00
                                0.00      0.00      0.00

     XDM     stress (kbar)      0.00      0.00      0.00
                                0.00      0.00      0.00
                                0.00      0.00      0.00

     dft-nl  stress (kbar)      0.00      0.00      0.00
                                0.00      0.00      0.00
                                0.00      0.00      0.00

     TS-vdW  stress (kbar)      0.00      0.00      0.00
                                0.00      0.00      0.00
                                0.00      0.00      0.00

     MDB     stress (kbar)      0.00      0.00      0.00
                                0.00      0.00      0.00
                                0.00      0.00      0.00

     3D-RISM stress (kbar)      0.00      0.00      0.00
                                0.00      0.00      0.00
                                0.00      0.00      0.00

     Writing all to output data dir ./YBCO.vc-relax/YBCO.vc-relax.save/

     General routines

     Parallel routines

   This run was terminated on:   0:48: 3  29Dec2023

   JOB DONE.