     Program PWSCF v.7.2 starts on 29Dec2023 at  1:51:55

     Waiting for input...
     Reading input from standard input
Warning: card &CELL ignored
Warning: card / ignored

     Current dimensions of program PWSCF are:
     Max number of different atomic species (ntypx) = 10
     Max number of k-points (npk) =  40000
     Max angular momentum in pseudopotentials (lmaxx) =  4

     R & G space division:  proc/nbgrp/npool/nimage =       4
     Subspace diagonalization in iterative solution of the eigenvalue problem:
     a serial algorithm will be used

     Using Slab Decomposition

     bravais-lattice index     =            6
     lattice parameter (alat)  =       7.3208  a.u.
     unit-cell volume          =    1184.0154 (a.u.)^3
     number of atoms/cell      =           12
     number of atomic types    =            4
     number of electrons       =       124.00
     number of Kohn-Sham states=           74
     kinetic-energy cutoff     =      90.0000  Ry
     charge density cutoff     =     720.0000  Ry
     scf convergence threshold =      1.0E-08
     mixing beta               =       0.1000
     number of iterations used =            8  plain     mixing
     Exchange-correlation= SLA  PW   PBE  PBE
                           (   1   4   3   4   0   0   0)

     celldm(1)=   7.320840  celldm(2)=   0.000000  celldm(3)=   3.017690
     celldm(4)=   0.000000  celldm(5)=   0.000000  celldm(6)=   0.000000

     crystal axes: (cart. coord. in units of alat)
               a(1) = (   1.000000   0.000000   0.000000 )
               a(2) = (   0.000000   1.000000   0.000000 )
               a(3) = (   0.000000   0.000000   3.017690 )

     reciprocal axes: (cart. coord. in units 2 pi/alat)
               b(1) = (  1.000000  0.000000  0.000000 )
               b(2) = (  0.000000  1.000000  0.000000 )
               b(3) = (  0.000000  0.000000  0.331379 )

     PseudoPot. # 1 for Y  read from file:
     ~/q-e/pseudo/all_pbe_UPF_v1.5/y_pbe_v1.4.uspp.F.UPF
     MD5 check sum: Not computed, couldn't open file
     Pseudo is Ultrasoft + core correction, Zval = 11.0
     Generated by new atomic code, or converted to UPF format
     Using radial grid of  885 points,  6 beta functions with:
                l(1) =   0
                l(2) =   0
                l(3) =   1
                l(4) =   1
                l(5) =   2
                l(6) =   2
     Q(r) pseudized with  8 coefficients,  rinner =    1.200   1.200   1.200
                                                       1.200   1.200

     PseudoPot. # 2 for Ba read from file:
     ~/q-e/pseudo/all_pbe_UPF_v1.5/ba_pbe_v1.uspp.F.UPF
     MD5 check sum: Not computed, couldn't open file
     Pseudo is Ultrasoft + core correction, Zval = 10.0
     Generated by new atomic code, or converted to UPF format
     Using radial grid of  907 points,  7 beta functions with:
                l(1) =   0
                l(2) =   0
                l(3) =   1
                l(4) =   1
                l(5) =   2
                l(6) =   2
                l(7) =   3
     Q(r) pseudized with  6 coefficients,  rinner =    1.700   1.700   1.700
                                                       1.700   1.700   1.700
                                                       1.700

     PseudoPot. # 3 for Cu read from file:
     ~/q-e/pseudo/all_pbe_UPF_v1.5/cu_pbe_v1.2.uspp.F.UPF
     MD5 check sum: Not computed, couldn't open file
     Pseudo is Ultrasoft + core correction, Zval = 19.0
     Generated by new atomic code, or converted to UPF format
     Using radial grid of  867 points,  6 beta functions with:
                l(1) =   0
                l(2) =   0
                l(3) =   1
                l(4) =   1
                l(5) =   2
                l(6) =   2
     Q(r) pseudized with  8 coefficients,  rinner =    1.150   1.150   1.150
                                                       1.150   1.150

     PseudoPot. # 4 for O  read from file:
     ~/q-e/pseudo/all_pbe_UPF_v1.5/o_pbe_v1.2.uspp.F.UPF
     MD5 check sum: Not computed, couldn't open file
     Pseudo is Ultrasoft + core correction, Zval =  6.0
     Generated by new atomic code, or converted to UPF format
     Using radial grid of  737 points,  5 beta functions with:
                l(1) =   0
                l(2) =   0
                l(3) =   1
                l(4) =   1
                l(5) =   2
     Q(r) pseudized with  8 coefficients,  rinner =    0.900   0.900   0.900
                                                       0.900   0.900

     atomic species   valence    mass     pseudopotential
     Y                11.00    88.90584     Y ( 1.00)
     Ba               10.00   137.32700     Ba( 1.00)
     Cu               19.00    63.54600     Cu( 1.00)
     O                 6.00    15.99900     O ( 1.00)

      8 Sym. Ops., with inversion, found

                                    s                        frac. trans.

      isym =  1     identity

 cryst.   s( 1) = (     1          0          0      )
                  (     0          1          0      )
                  (     0          0          1      )

 cart.    s( 1) = (  1.0000000  0.0000000  0.0000000 )
                  (  0.0000000  1.0000000  0.0000000 )
                  (  0.0000000  0.0000000  1.0000000 )

      isym =  2     180 deg rotation - cart. axis [0,0,1]

[...]

      isym =  4     180 deg rotation - cart. axis [1,0,0]

[...]

      isym =  5     inversion

[...]

      isym =  6     inv. 180 deg rotation - cart. axis [0,0,1]

[...]

      isym =  8     inv. 180 deg rotation - cart. axis [1,0,0]

 cryst.   s( 8) = (    -1          0          0      )
                  (     0          1          0      )
                  (     0          0          1      )

 cart.    s( 8) = ( -1.0000000  0.0000000  0.0000000 )
                  (  0.0000000  1.0000000  0.0000000 )
                  (  0.0000000  0.0000000  1.0000000 )

     point group D_2h (mmm)
     there are  8 classes
     the character table:

       E     C2    C2'   C2''  i     s_v   s_v'  s_v''
A_g    1.00  1.00  1.00  1.00  1.00  1.00  1.00  1.00
B_1g   1.00  1.00 -1.00 -1.00  1.00  1.00 -1.00 -1.00
B_2g   1.00 -1.00  1.00 -1.00  1.00 -1.00  1.00 -1.00
B_3g   1.00 -1.00 -1.00  1.00  1.00 -1.00 -1.00  1.00
A_u    1.00  1.00  1.00  1.00 -1.00 -1.00 -1.00 -1.00
B_1u   1.00  1.00 -1.00 -1.00 -1.00 -1.00  1.00  1.00
B_2u   1.00 -1.00  1.00 -1.00 -1.00  1.00 -1.00  1.00
B_3u   1.00 -1.00 -1.00  1.00 -1.00  1.00  1.00 -1.00

     the symmetry operations in each class and the name of the first element:

     E        1
          identity
     C2       2
          180 deg rotation - cart. axis [0,0,1]
     C2'      4
          180 deg rotation - cart. axis [1,0,0]
     C2''     3
          180 deg rotation - cart. axis [0,1,0]
     i        5
          inversion
     s_v      6
          inv. 180 deg rotation - cart. axis [0,0,1]
     s_v'     8
          inv. 180 deg rotation - cart. axis [1,0,0]
     s_v''    7
          inv. 180 deg rotation - cart. axis [0,1,0]

   Cartesian axes

     site n.     atom                  positions (alat units)
         1        Y      tau(   1) = (   0.5000000   0.5000000   1.5088451  )
         2        Ba     tau(   2) = (   0.5000000   0.5000000   0.5615829  )
         3        Ba     tau(   3) = (   0.5000000   0.5000000   2.4561072  )
         4        Cu     tau(   4) = (   0.0000000   0.0000000   0.0000000  )
         5        Cu     tau(   5) = (   0.0000000   0.0000000   1.0772132  )
         6        Cu     tau(   6) = (   0.0000000   0.0000000   1.9404769  )
         7        O      tau(   7) = (   0.5000000   0.0000000   1.1379760  )
         8        O      tau(   8) = (   0.5000000   0.0000000   1.8797141  )
         9        O      tau(   9) = (   0.0000000   0.5000000   1.1346923  )
        10        O      tau(  10) = (   0.0000000   0.5000000   1.8829979  )
        11        O      tau(  11) = (   0.0000000   0.0000000   0.4705240  )
        12        O      tau(  12) = (   0.0000000   0.0000000   2.5471662  )

   Crystallographic axes

     site n.     atom                  positions (cryst. coord.)
         1        Y      tau(   1) = (  0.5000000  0.5000000  0.5000000  )
         2        Ba     tau(   2) = (  0.5000000  0.5000000  0.1860969  )
         3        Ba     tau(   3) = (  0.5000000  0.5000000  0.8139031  )
         4        Cu     tau(   4) = (  0.0000000  0.0000000  0.0000000  )
         5        Cu     tau(   5) = (  0.0000000  0.0000000  0.3569661  )
         6        Cu     tau(   6) = (  0.0000000  0.0000000  0.6430339  )
         7        O      tau(   7) = (  0.5000000  0.0000000  0.3771017  )
         8        O      tau(   8) = (  0.5000000  0.0000000  0.6228983  )
         9        O      tau(   9) = (  0.0000000  0.5000000  0.3760135  )
        10        O      tau(  10) = (  0.0000000  0.5000000  0.6239865  )
        11        O      tau(  11) = (  0.0000000  0.0000000  0.1559219  )
        12        O      tau(  12) = (  0.0000000  0.0000000  0.8440781  )

     number of k points=     8  Methfessel-Paxton smearing, width (Ry)=  0.0100
                       cart. coord. in units 2pi/alat
        k(    1) = (   0.0000000   0.0000000   0.0000000), wk =   0.2500000
        k(    2) = (   0.0000000   0.0000000  -0.1656896), wk =   0.2500000
        k(    3) = (   0.0000000  -0.5000000   0.0000000), wk =   0.2500000
        k(    4) = (   0.0000000  -0.5000000  -0.1656896), wk =   0.2500000
        k(    5) = (  -0.5000000  -0.5000000   0.0000000), wk =   0.2500000
        k(    6) = (  -0.5000000  -0.5000000  -0.1656896), wk =   0.2500000
        k(    7) = (  -0.5000000   0.0000000   0.0000000), wk =   0.2500000
        k(    8) = (  -0.5000000   0.0000000   0.1656896), wk =   0.2500000

                       cryst. coord.
        k(    1) = (   0.0000000   0.0000000   0.0000000), wk =   0.2500000
        k(    2) = (   0.0000000   0.0000000  -0.5000000), wk =   0.2500000
        k(    3) = (   0.0000000  -0.5000000   0.0000000), wk =   0.2500000
        k(    4) = (   0.0000000  -0.5000000  -0.5000000), wk =   0.2500000
        k(    5) = (  -0.5000000  -0.5000000   0.0000000), wk =   0.2500000
        k(    6) = (  -0.5000000  -0.5000000  -0.5000000), wk =   0.2500000
        k(    7) = (  -0.5000000   0.0000000   0.0000000), wk =   0.2500000
        k(    8) = (  -0.5000000   0.0000000   0.5000000), wk =   0.2500000

     Initial potential from superposition of free atoms

     starting charge     120.9655, renormalised to     124.0000

     negative rho (up, down):  1.937E-01 0.000E+00
     Starting wfcs are  102 randomized atomic wfcs

     Self-consistent Calculation

     iteration #  1     ecut=    90.00 Ry     beta= 0.10
     Davidson diagonalization with overlap

     ethr =  1.00E-02,  avg # of iterations =  2.0

     negative rho (up, down):  1.915E-01 0.000E+00

     total energy              =   -1639.47559035 Ry
     estimated scf accuracy    <       1.77290376 Ry

[...]

     c_bands:  1 eigenvalues not converged
     ethr =  5.31E-06,  avg # of iterations =  6.5

[...]

     ethr =  3.94E-06,  avg # of iterations =  3.5
     Minimization algorithm failed to find Fermi energy: reverting to bisection
     Possible cause: smearing is larger than the electronic band-gap.

[...]

     c_bands:  1 eigenvalues not converged
     ethr =  5.40E-07,  avg # of iterations =  4.8

[...]

     total energy              =   -1639.29835844 Ry
     estimated scf accuracy    <       0.00000003 Ry

     iteration # 29     ecut=    90.00 Ry     beta= 0.10
     Davidson diagonalization with overlap

     ethr =  1.24E-11,  avg # of iterations =  2.0

[...]

     End of self-consistent calculation

          k = 0.0000 0.0000 0.0000 ( 17059 PWs)   bands (ev):

  -101.7048-101.7048-101.2890 -59.2318 -59.2318 -59.2276 -59.2275 -58.8347
   -58.8340 -58.8240 -58.6239 -58.6238 -30.6188 -15.9359 -15.9235 -11.0848
   -10.5964 -10.5926  -7.6585  -6.7873  -6.5916  -6.4752  -6.3372  -6.2275
    -1.3808  -1.1276  -0.8372  -0.8360  -0.8244  -0.8233   5.5347   5.7672
     5.7713   5.9211   6.0929   6.1038   6.9278   6.9873   7.4084   7.4089
     7.9118   8.0031   8.0338   8.0477   8.2305   8.2339   8.2489   8.2501
     8.2524   8.4171   8.5747   8.5855   8.6794   8.8753   8.9079   8.9185
     9.1725   9.2970   9.3163   9.4800   9.5480  10.1526  10.1539  12.6831
    13.4088  13.5755  13.7422  14.7986  15.3648  15.5690  15.5725  15.7048
    16.0973  16.4326

     occupation numbers
     1.0000   1.0000   1.0000   1.0000   1.0000   1.0000   1.0000   1.0000
     1.0000   1.0000   1.0000   1.0000   1.0000   1.0000   1.0000   1.0000
     1.0000   1.0000   1.0000   1.0000   1.0000   1.0000   1.0000   1.0000
     1.0000   1.0000   1.0000   1.0000   1.0000   1.0000   1.0000   1.0000
     1.0000   1.0000   1.0000   1.0000   1.0000   1.0000   1.0000   1.0000
     1.0000   1.0000   1.0000   1.0000   1.0000   1.0000   1.0000   1.0000
     1.0000   1.0000   1.0000   1.0000   1.0000   1.0000   1.0000   1.0000
     1.0000   1.0000   1.0000   1.0000   1.0000   1.0355   1.0354  -0.0000
    -0.0000  -0.0000  -0.0000  -0.0000  -0.0000  -0.0000  -0.0000  -0.0000
    -0.0000  -0.0000

[...]

          k = 0.0000-0.5000-0.1657 ( 17036 PWs)   bands (ev):

[...]

          k =-0.5000-0.5000 0.0000 ( 17104 PWs)   bands (ev):

[...]

          k =-0.5000 0.0000 0.1657 ( 17036 PWs)   bands (ev):

  -101.7048-101.7048-101.2890 -59.2318 -59.2317 -59.2277 -59.2276 -58.8347
   -58.8340 -58.8240 -58.6239 -58.6239 -30.6067 -15.8255 -15.8133 -11.1035
   -10.8699 -10.5753  -7.1084  -6.8939  -6.7893  -6.7635  -6.3798  -6.3125
    -1.3045  -1.1357  -0.9004  -0.8408  -0.6326  -0.6132   4.7680   4.8908
     5.5712   6.0130   6.2697   6.3150   6.7619   6.7991   6.8081   6.8456
     6.8609   7.0022   7.1885   7.3596   7.5097   7.7753   7.9305   8.1461
     8.3144   8.5376   8.5969   8.7749   8.8431   9.2934   9.3006   9.3568
     9.4207   9.6468   9.7414   9.7988   9.9313   9.9517  10.4061  12.0813
    14.2779  15.0263  15.4788  15.9543  16.0133  16.1917  16.2951  16.6538
    16.6826  17.3071

     occupation numbers
     1.0000   1.0000   1.0000   1.0000   1.0000   1.0000   1.0000   1.0000
     1.0000   1.0000   1.0000   1.0000   1.0000   1.0000   1.0000   1.0000
     1.0000   1.0000   1.0000   1.0000   1.0000   1.0000   1.0000   1.0000
     1.0000   1.0000   1.0000   1.0000   1.0000   1.0000   1.0000   1.0000
     1.0000   1.0000   1.0000   1.0000   1.0000   1.0000   1.0000   1.0000
     1.0000   1.0000   1.0000   1.0000   1.0000   1.0000   1.0000   1.0000
     1.0000   1.0000   1.0000   1.0000   1.0000   1.0000   1.0000   1.0000
     1.0000   1.0000   1.0000   1.0000   1.0002   1.0005   0.0633  -0.0000
    -0.0000  -0.0000  -0.0000  -0.0000  -0.0000  -0.0000  -0.0000  -0.0000
    -0.0000  -0.0000

     the Fermi energy is    10.3192 ev

!    total energy              =   -1639.29837089 Ry
     estimated scf accuracy    <          3.6E-09 Ry
     smearing contrib. (-TS)   =       0.00093379 Ry
     internal energy E=F+TS    =   -1639.29930467 Ry

     The total energy is F=E-TS. E is the sum of the following terms:
     one-electron contribution =   -1359.65026335 Ry
     hartree contribution      =     747.81569003 Ry
     xc contribution           =    -243.48288380 Ry
     ewald contribution        =    -783.98184755 Ry

     convergence has been achieved in  29 iterations

     negative rho (up, down):  1.728E-01 0.000E+00

     Forces acting on atoms (cartesian axes, Ry/au):

     atom    1 type  1   force =     0.00000000    0.00000000    0.00000000
     atom    2 type  2   force =     0.00000000    0.00000000    0.03570922
     atom    3 type  2   force =     0.00000000    0.00000000   -0.03570922
     atom    4 type  3   force =     0.00000000    0.00000000    0.00000000
     atom    5 type  3   force =     0.00000000    0.00000000    0.03590772
     atom    6 type  3   force =     0.00000000    0.00000000   -0.03590772
     atom    7 type  4   force =     0.00000000    0.00000000   -0.01563277
     atom    8 type  4   force =     0.00000000    0.00000000    0.01563277
     atom    9 type  4   force =     0.00000000    0.00000000   -0.01277571
     atom   10 type  4   force =     0.00000000    0.00000000    0.01277571
     atom   11 type  4   force =     0.00000000    0.00000000   -0.02791210
     atom   12 type  4   force =     0.00000000    0.00000000    0.02791210
     The non-local contrib.  to forces
     atom    1 type  1   force =     0.00000000    0.00000000    0.00000000
     atom    2 type  2   force =     0.00000000    0.00000000   -0.05735702
     atom    3 type  2   force =     0.00000000    0.00000000    0.05735702
     atom    4 type  3   force =     0.00000000    0.00000000    0.00000000
     atom    5 type  3   force =     0.00000000    0.00000000   -0.14039633
     atom    6 type  3   force =     0.00000000    0.00000000    0.14039633
     atom    7 type  4   force =     0.00000000    0.00000000    0.03766705
     atom    8 type  4   force =     0.00000000    0.00000000   -0.03766705
     atom    9 type  4   force =     0.00000000    0.00000000    0.05242024
     atom   10 type  4   force =     0.00000000    0.00000000   -0.05242024
     atom   11 type  4   force =     0.00000000    0.00000000   -0.54157350
     atom   12 type  4   force =     0.00000000    0.00000000    0.54157350
     The ionic contribution  to forces
     atom    1 type  1   force =     0.00000000    0.00000000    0.00000000
     atom    2 type  2   force =     0.00000000    0.00000000  -21.37416893
     atom    3 type  2   force =    -0.00000000   -0.00000000   21.37416893
     atom    4 type  3   force =     0.00000000    0.00000000    0.00000000
     atom    5 type  3   force =    -0.00000000   -0.00000000  -35.15142946
     atom    6 type  3   force =    -0.00000000   -0.00000000   35.15142946
     atom    7 type  4   force =     0.00000000   -0.00000000   -8.89928873
     atom    8 type  4   force =     0.00000000    0.00000000    8.89928873
     atom    9 type  4   force =    -0.00000000    0.00000000   -9.01629238
     atom   10 type  4   force =     0.00000000    0.00000000    9.01629238
     atom   11 type  4   force =     0.00000000    0.00000000   -3.31580921
     atom   12 type  4   force =     0.00000000    0.00000000    3.31580921
     The local contribution  to forces
     atom    1 type  1   force =     0.00000000    0.00000000    0.00000000
     atom    2 type  2   force =    -0.00000000   -0.00000000   21.46681373
     atom    3 type  2   force =     0.00000000    0.00000000  -21.46681373
     atom    4 type  3   force =    -0.00000000    0.00000000   -0.00000000
     atom    5 type  3   force =    -0.00000000   -0.00000000   35.32748515
     atom    6 type  3   force =    -0.00000000    0.00000000  -35.32748515
     atom    7 type  4   force =     0.00000000    0.00000000    8.84585137
     atom    8 type  4   force =    -0.00000000   -0.00000000   -8.84585137
     atom    9 type  4   force =    -0.00000000   -0.00000000    8.95110811
     atom   10 type  4   force =    -0.00000000   -0.00000000   -8.95110811
     atom   11 type  4   force =    -0.00000000   -0.00000000    3.82603942
     atom   12 type  4   force =    -0.00000000   -0.00000000   -3.82603942
     The core correction contribution to forces
     atom    1 type  1   force =    -0.00000000   -0.00000000   -0.00000000
     atom    2 type  2   force =    -0.00000000   -0.00000000    0.00040712
     atom    3 type  2   force =     0.00000000    0.00000000   -0.00040712
     atom    4 type  3   force =    -0.00000000   -0.00000000   -0.00000000
     atom    5 type  3   force =    -0.00000000   -0.00000000    0.00024803
     atom    6 type  3   force =    -0.00000000    0.00000000   -0.00024803
     atom    7 type  4   force =     0.00000000    0.00000000    0.00012128
     atom    8 type  4   force =    -0.00000000   -0.00000000   -0.00012128
     atom    9 type  4   force =     0.00000000   -0.00000000   -0.00001848
     atom   10 type  4   force =     0.00000000   -0.00000000    0.00001848
     atom   11 type  4   force =    -0.00000000    0.00000000    0.00339586
     atom   12 type  4   force =     0.00000000   -0.00000000   -0.00339586
     The Hubbard contrib.    to forces
     atom    1 type  1   force =     0.00000000    0.00000000    0.00000000
     atom    2 type  2   force =     0.00000000    0.00000000    0.00000000
     atom    3 type  2   force =     0.00000000    0.00000000    0.00000000
     atom    4 type  3   force =     0.00000000    0.00000000    0.00000000
     atom    5 type  3   force =     0.00000000    0.00000000    0.00000000
     atom    6 type  3   force =     0.00000000    0.00000000    0.00000000
     atom    7 type  4   force =     0.00000000    0.00000000    0.00000000
     atom    8 type  4   force =     0.00000000    0.00000000    0.00000000
     atom    9 type  4   force =     0.00000000    0.00000000    0.00000000
     atom   10 type  4   force =     0.00000000    0.00000000    0.00000000
     atom   11 type  4   force =     0.00000000    0.00000000    0.00000000
     atom   12 type  4   force =     0.00000000    0.00000000    0.00000000
     The SCF correction term to forces
     atom    1 type  1   force =    -0.00000000    0.00000000   -0.00000000
     atom    2 type  2   force =    -0.00000000   -0.00000000    0.00001432
     atom    3 type  2   force =    -0.00000000    0.00000000   -0.00001432
     atom    4 type  3   force =     0.00000000    0.00000000    0.00000000
     atom    5 type  3   force =    -0.00000000    0.00000000    0.00000033
     atom    6 type  3   force =    -0.00000000   -0.00000000   -0.00000033
     atom    7 type  4   force =     0.00000000    0.00000000    0.00001625
     atom    8 type  4   force =     0.00000000   -0.00000000   -0.00001625
     atom    9 type  4   force =    -0.00000000   -0.00000000    0.00000681
     atom   10 type  4   force =    -0.00000000    0.00000000   -0.00000681
     atom   11 type  4   force =    -0.00000000   -0.00000000    0.00003532
     atom   12 type  4   force =    -0.00000000    0.00000000   -0.00003532

     Total force =     0.086616     Total SCF correction =     0.000059

     Writing all to output data dir ./YBCO6/YBCO6.save/

     General routines

     Parallel routines

   This run was terminated on:   1:54:16  29Dec2023

   JOB DONE.