     Program PWSCF v.7.2 starts on  2Dec2023 at 13:11:12

     Waiting for input...
     Reading input from standard input

     Current dimensions of program PWSCF are:
     Max number of different atomic species (ntypx) = 10
     Max number of k-points (npk) =  40000
     Max angular momentum in pseudopotentials (lmaxx) =  4
     file O.pbe-n-kjpaw_psl.0.1.UPF: wavefunction(s)  2P renormalized

     R & G space division:  proc/nbgrp/npool/nimage =       2
     Subspace diagonalization in iterative solution of the eigenvalue problem:
     a serial algorithm will be used

     Using Slab Decomposition

     bravais-lattice index     =            5
     lattice parameter (alat)  =       9.6715  a.u.
     unit-cell volume          =     246.2189 (a.u.)^3
     number of atoms/cell      =            4
     number of atomic types    =            3
     number of electrons       =        48.00 (up:  24.00, down:  24.00)
     number of Kohn-Sham states=           36
     kinetic-energy cutoff     =      50.0000  Ry
     charge density cutoff     =     500.0000  Ry
     scf convergence threshold =      1.0E-09
     mixing beta               =       0.3000
     number of iterations used =            8  plain     mixing
     Exchange-correlation= SLA  PW   PBX  PBC
                           (   1   4   3   4   0   0   0)

     celldm(1)=   9.671550  celldm(2)=   0.000000  celldm(3)=   0.000000
     celldm(4)=   0.833333  celldm(5)=   0.000000  celldm(6)=   0.000000

     crystal axes: (cart. coord. in units of alat)
               a(1) = (   0.288675  -0.166667   0.942809 )
               a(2) = (   0.000000   0.333333   0.942809 )
               a(3) = (  -0.288675  -0.166667   0.942809 )

     reciprocal axes: (cart. coord. in units 2 pi/alat)
               b(1) = (  1.732051 -1.000000  0.353553 )
               b(2) = (  0.000000  2.000000  0.353553 )
               b(3) = ( -1.732051 -1.000000  0.353553 )

     PseudoPot. # 1 for Ni read from file:
     ~/q-e/pseudo/ni_pbe_v1.4.uspp.F.UPF
     MD5 check sum: Not computed, couldn't open file
     Pseudo is Ultrasoft + core correction, Zval = 18.0
     Generated by new atomic code, or converted to UPF format
     Using radial grid of  865 points,  6 beta functions with:
                l(1) =   0
                l(2) =   0
                l(3) =   1
                l(4) =   1
                l(5) =   2
                l(6) =   2
     Q(r) pseudized with 10 coefficients,  rinner =    0.980   0.980   0.980
                                                       0.980   0.980

     PseudoPot. # 2 for Ni read from file:
     ~/q-e/pseudo/ni_pbe_v1.4.uspp.F.UPF
     MD5 check sum: Not computed, couldn't open file
     Pseudo is Ultrasoft + core correction, Zval = 18.0
     Generated by new atomic code, or converted to UPF format
     Using radial grid of  865 points,  6 beta functions with:
                l(1) =   0
                l(2) =   0
                l(3) =   1
                l(4) =   1
                l(5) =   2
                l(6) =   2
     Q(r) pseudized with 10 coefficients,  rinner =    0.980   0.980   0.980
                                                       0.980   0.980

     PseudoPot. # 3 for O  read from file:
     ~/q-e/pseudo/O.pbe-n-kjpaw_psl.0.1.UPF
     MD5 check sum: Not computed, couldn't open file
     Pseudo is Projector augmented-wave + core cor, Zval =  6.0
     Generated using "atomic" code by A. Dal Corso  v.5.0.99 svn rev. 10869
     Shape of augmentation charge: BESSEL
     Using radial grid of 1095 points,  4 beta functions with:
                l(1) =   0
                l(2) =   0
                l(3) =   1
                l(4) =   1
     Q(r) pseudized with 0 coefficients

     atomic species   valence    mass     pseudopotential
     Ni1              18.00    58.69340     Ni( 1.00)
     Ni2              18.00    58.69340     Ni( 1.00)
     O                 6.00    15.99900     O ( 1.00)

     Starting magnetic structure
     atomic species   magnetization
     Ni1             0.200
     Ni2            -0.200
     O               0.000

     12 Sym. Ops., with inversion, found

   Cartesian axes

     site n.     atom                  positions (alat units)
         1        Ni1    tau(   1) = (   0.0000000   0.0000000   0.0000000  )
         2        Ni2    tau(   2) = (   0.0000000   0.6666667   0.4714045  )
         3        O      tau(   3) = (   0.2886751  -0.1666667   0.2357023  )
         4        O      tau(   4) = (  -0.2886751   0.1666667  -0.2357023  )

     number of k points=    13
                       cart. coord. in units 2pi/alat
        k(    1) = (   0.0000000   0.0000000   0.0000000), wk =   0.0156250
        k(    2) = (  -0.4330127  -0.2500000   0.0883883), wk =   0.0937500
        k(    3) = (   0.8660254   0.5000000  -0.1767767), wk =   0.0468750
        k(    4) = (  -0.4330127   0.2500000   0.1767767), wk =   0.0937500
        k(    5) = (   0.8660254   1.0000000  -0.0883883), wk =   0.1875000
        k(    6) = (   0.4330127   0.7500000   0.0000000), wk =   0.0937500
        k(    7) = (   0.8660254  -0.5000000  -0.3535534), wk =   0.0468750
        k(    8) = (   0.0000000   0.0000000   0.2651650), wk =   0.0312500
        k(    9) = (   1.2990381   0.7500000   0.0000000), wk =   0.0937500
        k(   10) = (   0.8660254   0.5000000   0.0883883), wk =   0.0937500
        k(   11) = (   1.2990381  -0.7500000  -0.2651650), wk =   0.0937500
        k(   12) = (   0.8660254  -1.0000000  -0.1767767), wk =   0.0937500
        k(   13) = (   0.0000000   0.0000000  -0.5303301), wk =   0.0156250

     Check: negative core charge=   -0.000006
     Generating pointlists ...
     new r_m :   0.1684 (alat units)  1.6287 (a.u.) for type    1
     new r_m :   0.1684 (alat units)  1.6287 (a.u.) for type    2
     new r_m :   0.1684 (alat units)  1.6287 (a.u.) for type    3

     Initial potential from superposition of free atoms

     starting charge      44.0000, renormalised to      48.0000
     Starting wfcs are   34 randomized atomic wfcs +    2 random wfcs
     Checking if some PAW data can be deallocated...

     Self-consistent Calculation

     iteration #  1     ecut=    50.00 Ry     beta= 0.30
     Davidson diagonalization with overlap
     ethr =  1.00E-02,  avg # of iterations =  5.2

     total energy              =    -751.08171896 Ry
     estimated scf accuracy    <      63.27672271 Ry

     total magnetization       =     0.00 Bohr mag/cell
     absolute magnetization    =     3.92 Bohr mag/cell

[...]

     total energy              =    -769.77758642 Ry
     estimated scf accuracy    <          2.6E-09 Ry

[...]

     iteration # 14     ecut=    50.00 Ry     beta= 0.30
     Davidson diagonalization with overlap
     ethr =  5.44E-12,  avg # of iterations =  2.0

     Magnetic moment per site  (integrated on atomic sphere of radius R)
     atom   1 (R=0.168)  charge= 15.6816  magn=  1.3676
     atom   2 (R=0.168)  charge= 15.6816  magn= -1.3676
     atom   3 (R=0.168)  charge=  5.6696  magn= -0.0000
     atom   4 (R=0.168)  charge=  5.6696  magn= -0.0000

     End of self-consistent calculation

 ------ SPIN UP ------------

          k = 0.0000 0.0000 0.0000 (  1479 PWs)   bands (ev):

   -90.1599 -88.2474 -50.5612 -50.5312 -50.5312 -48.7031 -48.6843 -48.6843
    -6.0143  -4.6163   6.1251   8.7598   8.7598  11.3711  11.3711  11.3730
    11.7831  11.7831  11.8818  12.2330  12.2330  13.1851  13.1851  13.4543
    15.7309  15.7309  15.8468  19.8519  24.3494  28.3213  28.3213  31.9451
    33.1443  33.1463  33.1463  35.5639

          k =-0.4330-0.2500 0.0884 (  1466 PWs)   bands (ev):

[...]

 ------ SPIN DOWN ----------

[...]

          k =-0.4330 0.2500 0.1768 (  1480 PWs)   bands (ev):

[...]

          k = 0.0000 0.0000-0.5303 (  1490 PWs)   bands (ev):

   -90.1599 -88.2474 -50.5611 -50.5312 -50.5312 -48.7032 -48.6843 -48.6843
    -5.3808  -5.3749   8.1737   8.2242   9.2795   9.2795   9.9771   9.9771
    11.8873  11.8873  12.2717  13.0203  13.0203  13.1525  13.6505  13.6505
    15.1716  15.1716  18.5154  18.6526  26.4048  26.5401  30.5964  30.5964
    30.6546  30.6546  34.6043  34.6839

     highest occupied, lowest unoccupied level (ev):    13.7721   14.5631

!    total energy              =    -769.77758653 Ry
     estimated scf accuracy    <          1.1E-10 Ry

     The total energy is the sum of the following terms:
     one-electron contribution =    -433.33523043 Ry
     hartree contribution      =     246.32663014 Ry
     xc contribution           =     -86.08236398 Ry
     ewald contribution        =    -477.64553572 Ry
     one-center paw contrib.   =     -19.04108654 Ry

     total magnetization       =    -0.00 Bohr mag/cell
     absolute magnetization    =     3.04 Bohr mag/cell

     convergence has been achieved in  14 iterations

     Forces acting on atoms (cartesian axes, Ry/au):

     atom    1 type  1   force =     0.00000000    0.00000000    0.00000000
     atom    2 type  2   force =    -0.00000000   -0.00000000    0.00000000
     atom    3 type  3   force =     0.00000000    0.00000000    0.00000054
     atom    4 type  3   force =     0.00000000    0.00000000   -0.00000054

     Total force =     0.000001     Total SCF correction =     0.000002
     SCF correction compared to forces is large: reduce conv_thr to get better values

     Writing all to output data dir ./outdir/NiO_woU.save/

     General routines

     Parallel routines

   This run was terminated on:  13:11:34   2Dec2023

   JOB DONE.