     Program PWSCF v.6.4.1 starts on 19Jul2019 at 21:17:37

     R & G space division:  proc/nbgrp/npool/nimage =       2
     Reading input from ni.1_scf.in

     Current dimensions of program PWSCF are:
     Max number of different atomic species (ntypx) = 10
     Max number of k-points (npk) =  40000
     Max angular momentum in pseudopotentials (lmaxx) =  3
               file O.pbe-n-kjpaw_psl.0.1.UPF: wavefunction(s)  2P renormalized

     Subspace diagonalization in iterative solution of the eigenvalue problem:
     a serial algorithm will be used

     bravais-lattice index     =            5
     lattice parameter (alat)  =       9.6715  a.u.
     unit-cell volume          =     246.2189 (a.u.)^3
     number of atoms/cell      =            4
     number of atomic types    =            3
     number of electrons       =        48.00 (up:  24.00, down:  24.00)
     number of Kohn-Sham states=           36
     kinetic-energy cutoff     =      50.0000  Ry
     charge density cutoff     =     500.0000  Ry
     convergence threshold     =      1.0E-09
     mixing beta               =       0.3000
     number of iterations used =            8  plain     mixing
     Exchange-correlation      = SLA PW PBX PBC ( 1  4  3  4 0 0)

     celldm(1)=   9.671550  celldm(2)=   0.000000  celldm(3)=   0.000000
     celldm(4)=   0.833333  celldm(5)=   0.000000  celldm(6)=   0.000000

     crystal axes: (cart. coord. in units of alat)
               a(1) = (   0.288675  -0.166667   0.942809 )
               a(2) = (   0.000000   0.333333   0.942809 )
               a(3) = (  -0.288675  -0.166667   0.942809 )

     reciprocal axes: (cart. coord. in units 2 pi/alat)
               b(1) = (  1.732051 -1.000000  0.353553 )
               b(2) = (  0.000000  2.000000  0.353553 )
               b(3) = ( -1.732051 -1.000000  0.353553 )

     PseudoPot. # 1 for Ni read from file:
     /home/anonymous/quantumEspresso_2019/SSSP_precision_pseudos/ni_pbe_v1.4.uspp.F.UPF
     MD5 check sum: 1ee80287db30b12d2bc1f57a5b5d6409
     Pseudo is Ultrasoft + core correction, Zval = 18.0
     Generated by new atomic code, or converted to UPF format
     Using radial grid of  865 points,  6 beta functions with:
                l(1) =   0
                l(2) =   0
                l(3) =   1
                l(4) =   1
                l(5) =   2
                l(6) =   2
     Q(r) pseudized with 10 coefficients,  rinner =    0.980   0.980   0.980
                                                       0.980   0.980

     PseudoPot. # 2 for Ni read from file:
     /home/anonymous/quantumEspresso_2019/SSSP_precision_pseudos/ni_pbe_v1.4.uspp.F.UPF
     MD5 check sum: 1ee80287db30b12d2bc1f57a5b5d6409
     Pseudo is Ultrasoft + core correction, Zval = 18.0
     Generated by new atomic code, or converted to UPF format
     Using radial grid of  865 points,  6 beta functions with:
                l(1) =   0
                l(2) =   0
                l(3) =   1
                l(4) =   1
                l(5) =   2
                l(6) =   2
     Q(r) pseudized with 10 coefficients,  rinner =    0.980   0.980   0.980
                                                       0.980   0.980

     PseudoPot. # 3 for O  read from file:
     /home/anonymous/quantumEspresso_2019/SSSP_precision_pseudos/O.pbe-n-kjpaw_psl.0.1.UPF
     MD5 check sum: 0234752ac141de4415c5fc33072bef88
     Pseudo is Projector augmented-wave + core cor, Zval =  6.0
     Generated using "atomic" code by A. Dal Corso v.5.0.99 svn rev. 10869
     Shape of augmentation charge: BESSEL
     Using radial grid of 1095 points,  4 beta functions with:
                l(1) =   0
                l(2) =   0
                l(3) =   1
                l(4) =   1
     Q(r) pseudized with 0 coefficients

     atomic species   valence    mass     pseudopotential
        Ni1           18.00    58.69340     Ni( 1.00)
        Ni2           18.00    58.69340     Ni( 1.00)
        O              6.00    15.99900     O ( 1.00)

     Starting magnetic structure
     atomic species   magnetization
        Ni1          0.200
        Ni2         -0.200
        O            0.000

     Simplified LDA+U calculation (l_max = 2) with parameters (eV):
     atomic species    L          U    alpha       J0     beta
        Ni1            2     7.6000   0.0000   0.0000   0.0000
        Ni2            2     7.6000   0.0000   0.0000   0.0000

     12 Sym. Ops., with inversion, found

   Cartesian axes

     site n.     atom                  positions (alat units)
         1           Ni1 tau(   1) = (   0.0000000   0.0000000   0.0000000  )
         2           Ni2 tau(   2) = (   0.0000000   0.6666667   0.4714045  )
         3           O   tau(   3) = (   0.2886751  -0.1666667   0.2357023  )
         4           O   tau(   4) = (  -0.2886751   0.1666667  -0.2357023  )

     number of k points=    13
                       cart. coord. in units 2pi/alat
        k(    1) = (   0.0000000   0.0000000   0.0000000), wk =   0.0156250
        k(    2) = (  -0.4330127  -0.2500000   0.0883883), wk =   0.0937500
        k(    3) = (   0.8660254   0.5000000  -0.1767767), wk =   0.0468750
        k(    4) = (  -0.4330127   0.2500000   0.1767767), wk =   0.0937500
        k(    5) = (   0.8660254   1.0000000  -0.0883883), wk =   0.1875000
        k(    6) = (   0.4330127   0.7500000   0.0000000), wk =   0.0937500
        k(    7) = (   0.8660254  -0.5000000  -0.3535534), wk =   0.0468750
        k(    8) = (   0.0000000   0.0000000   0.2651650), wk =   0.0312500
        k(    9) = (   1.2990381   0.7500000   0.0000000), wk =   0.0937500
        k(   10) = (   0.8660254   0.5000000   0.0883883), wk =   0.0937500
        k(   11) = (   1.2990381  -0.7500000  -0.2651650), wk =   0.0937500
        k(   12) = (   0.8660254  -1.0000000  -0.1767767), wk =   0.0937500
        k(   13) = (   0.0000000   0.0000000  -0.5303301), wk =   0.0156250

     Check: negative core charge=   -0.000006

     Initial potential from superposition of free atoms

     starting charge   44.00000, renormalised to   48.00000
     Number of +U iterations with fixed ns =  0
     Starting occupations:
 --- enter write_ns ---
 LDA+U parameters:
U( 1)     =  7.60000000
alpha( 1) =  0.00000000
U( 2)     =  7.60000000
alpha( 2) =  0.00000000
atom    1   Tr[ns(na)] (up, down, total) =   5.00000  3.00000  8.00000
   spin  1
    eigenvalues:
  1.000  1.000  1.000  1.000  1.000
    eigenvectors:
  1.000  0.000  0.000  0.000  0.000
  0.000  1.000  0.000  0.000  0.000
  0.000  0.000  1.000  0.000  0.000
  0.000  0.000  0.000  1.000  0.000
  0.000  0.000  0.000  0.000  1.000
    occupations:
  1.000  0.000  0.000  0.000  0.000
  0.000  1.000  0.000  0.000  0.000
  0.000  0.000  1.000  0.000  0.000
  0.000  0.000  0.000  1.000  0.000
  0.000  0.000  0.000  0.000  1.000
   spin  2
    eigenvalues:
  0.600  0.600  0.600  0.600  0.600
    eigenvectors:
  1.000  0.000  0.000  0.000  0.000
  0.000  1.000  0.000  0.000  0.000
  0.000  0.000  1.000  0.000  0.000
  0.000  0.000  0.000  1.000  0.000
  0.000  0.000  0.000  0.000  1.000
    occupations:
  0.600  0.000  0.000  0.000  0.000
  0.000  0.600  0.000  0.000  0.000
  0.000  0.000  0.600  0.000  0.000
  0.000  0.000  0.000  0.600  0.000
  0.000  0.000  0.000  0.000  0.600
atomic mag. moment =     2.000000
atom    2   Tr[ns(na)] (up, down, total) =   3.00000  5.00000  8.00000
   spin  1
    eigenvalues:
  0.600  0.600  0.600  0.600  0.600
    eigenvectors:
  1.000  0.000  0.000  0.000  0.000
  0.000  1.000  0.000  0.000  0.000
  0.000  0.000  1.000  0.000  0.000
  0.000  0.000  0.000  1.000  0.000
  0.000  0.000  0.000  0.000  1.000
    occupations:
  0.600  0.000  0.000  0.000  0.000
  0.000  0.600  0.000  0.000  0.000
  0.000  0.000  0.600  0.000  0.000
  0.000  0.000  0.000  0.600  0.000
  0.000  0.000  0.000  0.000  0.600
   spin  2
    eigenvalues:
  1.000  1.000  1.000  1.000  1.000
    eigenvectors:
  1.000  0.000  0.000  0.000  0.000
  0.000  1.000  0.000  0.000  0.000
  0.000  0.000  1.000  0.000  0.000
  0.000  0.000  0.000  1.000  0.000
  0.000  0.000  0.000  0.000  1.000
    occupations:
  1.000  0.000  0.000  0.000  0.000
  0.000  1.000  0.000  0.000  0.000
  0.000  0.000  1.000  0.000  0.000
  0.000  0.000  0.000  1.000  0.000
  0.000  0.000  0.000  0.000  1.000
atomic mag. moment =    -2.000000
N of occupied +U levels =   16.000000
 --- exit write_ns ---
 Atomic wfc used for LDA+U Projector are NOT orthogonalized
     Starting wfcs are   34 randomized atomic wfcs +    2 random wfcs
     Checking if some PAW data can be deallocated...

     Self-consistent Calculation

     iteration #  1     ecut=    50.00 Ry     beta= 0.30
     Davidson diagonalization with overlap
     ethr =  1.00E-02,  avg # of iterations =  4.0
 --- enter write_ns ---
 LDA+U parameters:
U( 1)     =  7.60000000
alpha( 1) =  0.00000000
U( 2)     =  7.60000000
alpha( 2) =  0.00000000
atom    1   Tr[ns(na)] (up, down, total) =   3.86476  0.83922  4.70398
   spin  1
    eigenvalues:
  0.722  0.722  0.761  0.830  0.830
    eigenvectors:
  0.000  0.000  1.000  0.000  0.000
  0.014  0.462  0.000  0.252  0.273
  0.462  0.014  0.000  0.273  0.252
  0.509  0.015  0.000  0.247  0.228
  0.015  0.509  0.000  0.228  0.247
    occupations:
  0.761  0.000  0.000  0.000  0.000
  0.000  0.778  0.000 -0.000  0.054
  0.000  0.000  0.778  0.054 -0.000
  0.000 -0.000  0.054  0.773 -0.000
  0.000  0.054 -0.000 -0.000  0.773
   spin  2
    eigenvalues:
  0.086  0.086  0.206  0.206  0.254
    eigenvectors:
  0.000  0.000  0.000  0.000  1.000
  0.554  0.143  0.003  0.300  0.000
  0.143  0.554  0.300  0.003  0.000
  0.062  0.240  0.692  0.006  0.000
  0.240  0.062  0.006  0.692  0.000
    occupations:
  0.254  0.000 -0.000  0.000  0.000
  0.000  0.123  0.000 -0.000 -0.055
 -0.000  0.000  0.123 -0.055  0.000
  0.000 -0.000 -0.055  0.170 -0.000
  0.000 -0.055  0.000 -0.000  0.170
atomic mag. moment =     3.025541
atom    2   Tr[ns(na)] (up, down, total) =   0.83921  3.86478  4.70399
   spin  1
    eigenvalues:
  0.086  0.086  0.206  0.206  0.254
    eigenvectors:
  0.000  0.000  0.000  0.000  1.000
  0.554  0.144  0.003  0.300  0.000
  0.144  0.554  0.300  0.003  0.000
  0.062  0.240  0.692  0.006  0.000
  0.240  0.062  0.006  0.692  0.000
    occupations:
  0.254  0.000 -0.000  0.000  0.000
  0.000  0.123  0.000 -0.000 -0.055
 -0.000  0.000  0.123 -0.055  0.000
  0.000 -0.000 -0.055  0.170 -0.000
  0.000 -0.055  0.000 -0.000  0.170
   spin  2
    eigenvalues:
  0.722  0.722  0.761  0.830  0.830
    eigenvectors:
  0.000  0.000  1.000  0.000  0.000
  0.014  0.462  0.000  0.252  0.273
  0.462  0.014  0.000  0.273  0.252
  0.509  0.015  0.000  0.247  0.228
  0.015  0.509  0.000  0.228  0.247
    occupations:
  0.761  0.000  0.000  0.000  0.000
  0.000  0.778  0.000 -0.000  0.054
  0.000  0.000  0.778  0.054 -0.000
  0.000 -0.000  0.054  0.773 -0.000
  0.000  0.054 -0.000 -0.000  0.773
atomic mag. moment =    -3.025573
N of occupied +U levels =    9.407968
 --- exit write_ns ---

     total energy              =    -756.03841977 Ry
     Harris-Foulkes estimate   =    -778.54944179 Ry
     estimated scf accuracy    <      49.73516517 Ry

     total magnetization       =     0.00 Bohr mag/cell
     absolute magnetization    =     6.69 Bohr mag/cell

     iteration #  2     ecut=    50.00 Ry     beta= 0.30
     Davidson diagonalization with overlap
     ethr =  1.00E-02,  avg # of iterations =  3.0

[...]

     total energy              =    -769.53825263 Ry
     Harris-Foulkes estimate   =    -769.53825259 Ry
     estimated scf accuracy    <          2.5E-09 Ry

[...]

     iteration # 16     ecut=    50.00 Ry     beta= 0.30
     Davidson diagonalization with overlap
     ethr =  5.22E-12,  avg # of iterations =  2.0

     Magnetic moment per site:
     atom:    1    charge:   15.6116    magn:    1.7037    constr:    0.0000
     atom:    2    charge:   15.6116    magn:   -1.7037    constr:    0.0000
     atom:    3    charge:    5.7443    magn:   -0.0000    constr:    0.0000
     atom:    4    charge:    5.7443    magn:   -0.0000    constr:    0.0000

     End of self-consistent calculation
 --- enter write_ns ---
 LDA+U parameters:
U( 1)     =  7.60000000
alpha( 1) =  0.00000000
U( 2)     =  7.60000000
alpha( 2) =  0.00000000
atom    1   Tr[ns(na)] (up, down, total) =   4.98799  3.33554  8.32353
   spin  1
    eigenvalues:
  0.997  0.997  0.997  0.998  0.998
    eigenvectors:
  1.000  0.000  0.000  0.000  0.000
  0.000  0.018  0.314  0.500  0.168
  0.000  0.314  0.018  0.168  0.500
  0.000  0.632  0.036  0.083  0.249
  0.000  0.036  0.632  0.249  0.083
    occupations:
  0.997  0.000  0.000  0.000  0.000
  0.000  0.998  0.000 -0.000  0.000
  0.000  0.000  0.998  0.000 -0.000
  0.000 -0.000  0.000  0.998 -0.000
  0.000  0.000 -0.000 -0.000  0.998
   spin  2
    eigenvalues:
  0.176  0.176  0.994  0.994  0.994
    eigenvectors:
  0.000  0.000  1.000  0.000  0.000
  0.498  0.169  0.000  0.018  0.315
  0.169  0.498  0.000  0.315  0.018
  0.085  0.249  0.000  0.630  0.036
  0.249  0.085  0.000  0.036  0.630
    occupations:
  0.994 -0.000 -0.000  0.000  0.000
 -0.000  0.449  0.000 -0.000 -0.386
 -0.000  0.000  0.449 -0.386  0.000
  0.000 -0.000 -0.386  0.721 -0.000
  0.000 -0.386  0.000 -0.000  0.721
atomic mag. moment =     1.652451
atom    2   Tr[ns(na)] (up, down, total) =   3.33554  4.98799  8.32353
   spin  1
    eigenvalues:
  0.176  0.176  0.994  0.994  0.994
    eigenvectors:
  0.000  0.000  1.000  0.000  0.000
  0.500  0.166  0.000  0.018  0.315
  0.166  0.500  0.000  0.315  0.018
  0.083  0.250  0.000  0.630  0.036
  0.250  0.083  0.000  0.036  0.630
    occupations:
  0.994 -0.000 -0.000  0.000  0.000
 -0.000  0.449  0.000 -0.000 -0.386
 -0.000  0.000  0.449 -0.386  0.000
  0.000 -0.000 -0.386  0.721 -0.000
  0.000 -0.386  0.000 -0.000  0.721
   spin  2
    eigenvalues:
  0.997  0.997  0.997  0.998  0.998
    eigenvectors:
  1.000  0.000  0.000  0.000  0.000
  0.000  0.018  0.314  0.500  0.168
  0.000  0.314  0.018  0.168  0.500
  0.000  0.632  0.036  0.083  0.249
  0.000  0.036  0.632  0.249  0.083
    occupations:
  0.997  0.000  0.000  0.000  0.000
  0.000  0.998  0.000 -0.000  0.000
  0.000  0.000  0.998  0.000 -0.000
  0.000 -0.000  0.000  0.998 -0.000
  0.000  0.000 -0.000 -0.000  0.998
atomic mag. moment =    -1.652451
N of occupied +U levels =   16.647069
 --- exit write_ns ---

 ------ SPIN UP ------------

          k = 0.0000 0.0000 0.0000 (  1479 PWs)   bands (ev):

   -90.9961 -88.6047 -51.3658 -51.3541 -51.3541 -49.0482 -49.0344 -49.0344
    -5.5487  -4.0711   4.8910   5.8899   5.8899   7.4023   7.4023   7.7242
     8.7775   8.7775  10.5269  11.9354  11.9354  11.9378  12.2152  12.2152
    15.9900  17.1717  17.1717  19.9141  24.6257  28.2668  28.2668  31.9599
    33.0527  33.0540  33.0540  35.4500

          k =-0.4330-0.2500 0.0884 (  1466 PWs)   bands (ev):

[...]

 ------ SPIN DOWN ----------

[...]

          k =-0.4330 0.2500 0.1768 (  1480 PWs)   bands (ev):

[...]

          k = 0.0000 0.0000-0.5303 (  1490 PWs)   bands (ev):

   -90.9958 -88.6044 -51.3658 -51.3541 -51.3541 -49.0484 -49.0344 -49.0344
    -4.8885  -4.8767   5.9660   5.9660   6.2238   7.0128   7.4909   7.4909
     8.5319   8.5319  10.1618  10.6600  11.4121  11.4121  12.9492  12.9492
    16.9663  16.9663  18.7384  18.8638  26.4002  26.5349  30.4942  30.4942
    30.6231  30.6231  34.5411  34.6135

     highest occupied, lowest unoccupied level (ev):    12.9492   15.9900

!    total energy              =    -769.53825267 Ry
     Harris-Foulkes estimate   =    -769.53825263 Ry
     estimated scf accuracy    <          3.9E-10 Ry

     The total energy is the sum of the following terms:

     one-electron contribution =    -432.34739199 Ry
     hartree contribution      =     245.49056242 Ry
     xc contribution           =     -86.18724027 Ry
     ewald contribution        =    -477.64553572 Ry
     Hubbard energy            =       0.17852482 Ry
     one-center paw contrib.   =     -19.02717192 Ry

     total magnetization       =    -0.00 Bohr mag/cell
     absolute magnetization    =     3.67 Bohr mag/cell

     convergence has been achieved in  16 iterations

     Forces acting on atoms (cartesian axes, Ry/au):

     atom    1 type  1   force =    -0.00000000   -0.00000000   -0.00000000
     atom    2 type  2   force =     0.00000000    0.00000000    0.00000000
     atom    3 type  3   force =     0.00000000   -0.00000000    0.00000004
     atom    4 type  3   force =     0.00000000   -0.00000000   -0.00000004

     Total force =     0.000000     Total SCF correction =     0.000001
     SCF correction compared to forces is large: reduce conv_thr to get better values

     Writing output data file NiO.save/

     General routines

     Parallel routines

     Hubbard U routines

   This run was terminated on:  21:19:30  19Jul2019

   JOB DONE.