     Program PWSCF v.7.2 starts on 29Dec2023 at 23:51: 5

     Waiting for input...
     Reading input from standard input

     Current dimensions of program PWSCF are:
     Max number of different atomic species (ntypx) = 10
     Max number of k-points (npk) =  40000
     Max angular momentum in pseudopotentials (lmaxx) =  4
     file Y.pz-spn-rrkjus_psl.1.0.0.UPF: wavefunction(s)  4S renormalized
     file Ba.pz-spn-rrkjus_psl.1.0.0.UPF: wavefunction(s)  5S 6S renormalized
     file Cu.pz-dn-rrkjus_psl.1.0.0.UPF: wavefunction(s)  3D renormalized

     R & G space division:  proc/nbgrp/npool/nimage =       4
     Subspace diagonalization in iterative solution of the eigenvalue problem:
     a serial algorithm will be used

     Using Slab Decomposition

     bravais-lattice index     =            6
     lattice parameter (alat)  =       7.2264  a.u.
     unit-cell volume          =    1152.6629 (a.u.)^3
     number of atoms/cell      =           12
     number of atomic types    =            4
     number of electrons       =       100.00
     number of Kohn-Sham states=           60
     kinetic-energy cutoff     =      90.0000  Ry
     charge density cutoff     =     720.0000  Ry
     scf convergence threshold =      1.0E-08
     mixing beta               =       0.0500
     number of iterations used =            8  plain     mixing
     energy convergence thresh.=      1.0E-04
     force convergence thresh. =      1.0E-03
     press convergence thresh. =      5.0E-01
     Exchange-correlation= LDA
                           (   1   1   0   0   0   0   0)
     nstep                     =           50

     celldm(1)=   7.226353  celldm(2)=   0.000000  celldm(3)=   3.054532
     celldm(4)=   0.000000  celldm(5)=   0.000000  celldm(6)=   0.000000

     crystal axes: (cart. coord. in units of alat)
               a(1) = (   1.000000   0.000000   0.000000 )
               a(2) = (   0.000000   1.000000   0.000000 )
               a(3) = (   0.000000   0.000000   3.054532 )

     reciprocal axes: (cart. coord. in units 2 pi/alat)
               b(1) = (  1.000000  0.000000  0.000000 )
               b(2) = (  0.000000  1.000000  0.000000 )
               b(3) = (  0.000000  0.000000  0.327382 )

     PseudoPot. # 1 for Y  read from file:
     ~/q-e/pslibrary/pz/PSEUDOPOTENTIALS/Y.pz-spn-rrkjus_psl.1.0.0.UPF
     MD5 check sum: Not computed, couldn't open file
     Pseudo is Ultrasoft + core correction, Zval = 11.0
     Generated using 'atomic' code by A. Dal Corso  v.7.2
     Using radial grid of 1223 points,  6 beta functions with:
                l(1) =   0
                l(2) =   0
                l(3) =   1
                l(4) =   1
                l(5) =   2
                l(6) =   2
     Q(r) pseudized with 0 coefficients

[...]

     PseudoPot. # 3 for Cu read from file:
     ~/q-e/pslibrary/pz/PSEUDOPOTENTIALS/Cu.pz-dn-rrkjus_psl.1.0.0.UPF
     MD5 check sum: Not computed, couldn't open file
     Pseudo is Ultrasoft + core correction, Zval = 11.0
     Generated using 'atomic' code by A. Dal Corso  v.7.2
     Using radial grid of 1199 points,  6 beta functions with:
                l(1) =   0
                l(2) =   0
                l(3) =   1
                l(4) =   1
                l(5) =   2
                l(6) =   2
     Q(r) pseudized with 0 coefficients

     PseudoPot. # 4 for O  read from file:
     ~/q-e/pslibrary/pz/PSEUDOPOTENTIALS/O.pz-n-rrkjus_psl.1.0.0.UPF
     MD5 check sum: Not computed, couldn't open file
     Pseudo is Ultrasoft + core correction, Zval =  6.0
     Generated using 'atomic' code by A. Dal Corso  v.7.2
     Using radial grid of 1095 points,  4 beta functions with:
                l(1) =   0
                l(2) =   0
                l(3) =   1
                l(4) =   1
     Q(r) pseudized with 0 coefficients

     atomic species   valence    mass     pseudopotential
     Y                11.00    88.90584     Y ( 1.00)
     Ba               10.00   137.32700     Ba( 1.00)
     Cu               11.00    63.54600     Cu( 1.00)
     O                 6.00    15.99900     O ( 1.00)

      8 Sym. Ops., with inversion, found

                                    s                        frac. trans.

      isym =  1     identity

 cryst.   s( 1) = (     1          0          0      )
                  (     0          1          0      )
                  (     0          0          1      )

 cart.    s( 1) = (  1.0000000  0.0000000  0.0000000 )
                  (  0.0000000  1.0000000  0.0000000 )
                  (  0.0000000  0.0000000  1.0000000 )

      isym =  2     180 deg rotation - cart. axis [0,0,1]

[...]

      isym =  5     inversion

[...]

      isym =  6     inv. 180 deg rotation - cart. axis [0,0,1]

[...]

     point group D_2h (mmm)
     there are  8 classes
     the character table:

       E     C2    C2'   C2''  i     s_v   s_v'  s_v''
A_g    1.00  1.00  1.00  1.00  1.00  1.00  1.00  1.00
B_1g   1.00  1.00 -1.00 -1.00  1.00  1.00 -1.00 -1.00
B_2g   1.00 -1.00  1.00 -1.00  1.00 -1.00  1.00 -1.00
B_3g   1.00 -1.00 -1.00  1.00  1.00 -1.00 -1.00  1.00
A_u    1.00  1.00  1.00  1.00 -1.00 -1.00 -1.00 -1.00
B_1u   1.00  1.00 -1.00 -1.00 -1.00 -1.00  1.00  1.00
B_2u   1.00 -1.00  1.00 -1.00 -1.00  1.00 -1.00  1.00
B_3u   1.00 -1.00 -1.00  1.00 -1.00  1.00  1.00 -1.00

     the symmetry operations in each class and the name of the first element:

     E        1
          identity
     C2       2
          180 deg rotation - cart. axis [0,0,1]
     C2'      4
          180 deg rotation - cart. axis [1,0,0]
     C2''     3
          180 deg rotation - cart. axis [0,1,0]
     i        5
          inversion
     s_v      6
          inv. 180 deg rotation - cart. axis [0,0,1]
     s_v'     8
          inv. 180 deg rotation - cart. axis [1,0,0]
     s_v''    7
          inv. 180 deg rotation - cart. axis [0,1,0]

   Cartesian axes

     site n.     atom                  positions (alat units)
         1        Y      tau(   1) = (   0.5000000   0.5000000   1.5272661  )
         2        Ba     tau(   2) = (   0.5000000   0.5000000   0.5684391  )
         3        Ba     tau(   3) = (   0.5000000   0.5000000   2.4860930  )
         4        Cu     tau(   4) = (   0.0000000   0.0000000   0.0000000  )
         5        Cu     tau(   5) = (   0.0000000   0.0000000   1.0903646  )
         6        Cu     tau(   6) = (   0.0000000   0.0000000   1.9641676  )
         7        O      tau(   7) = (   0.5000000   0.0000000   1.1518692  )
         8        O      tau(   8) = (   0.5000000   0.0000000   1.9026629  )
         9        O      tau(   9) = (   0.0000000   0.5000000   1.1485454  )
        10        O      tau(  10) = (   0.0000000   0.5000000   1.9059868  )
        11        O      tau(  11) = (   0.0000000   0.0000000   0.4762684  )
        12        O      tau(  12) = (   0.0000000   0.0000000   2.5782637  )

   Crystallographic axes

     site n.     atom                  positions (cryst. coord.)
         1        Y      tau(   1) = (  0.5000000  0.5000000  0.5000000  )
         2        Ba     tau(   2) = (  0.5000000  0.5000000  0.1860969  )
         3        Ba     tau(   3) = (  0.5000000  0.5000000  0.8139031  )
         4        Cu     tau(   4) = (  0.0000000  0.0000000  0.0000000  )
         5        Cu     tau(   5) = (  0.0000000  0.0000000  0.3569661  )
         6        Cu     tau(   6) = (  0.0000000  0.0000000  0.6430339  )
         7        O      tau(   7) = (  0.5000000  0.0000000  0.3771017  )
         8        O      tau(   8) = (  0.5000000  0.0000000  0.6228983  )
         9        O      tau(   9) = (  0.0000000  0.5000000  0.3760135  )
        10        O      tau(  10) = (  0.0000000  0.5000000  0.6239865  )
        11        O      tau(  11) = (  0.0000000  0.0000000  0.1559219  )
        12        O      tau(  12) = (  0.0000000  0.0000000  0.8440781  )

     number of k points=     1  Methfessel-Paxton smearing, width (Ry)=  0.0500
                       cart. coord. in units 2pi/alat
        k(    1) = (   0.0000000   0.0000000   0.0000000), wk =   2.0000000

                       cryst. coord.
        k(    1) = (   0.0000000   0.0000000   0.0000000), wk =   2.0000000

     Initial potential from superposition of free atoms

     starting charge      99.9671, renormalised to     100.0000
     Starting wfcs are   74 randomized atomic wfcs

     Self-consistent Calculation

     iteration #  1     ecut=    90.00 Ry     beta= 0.05
     Davidson diagonalization with overlap

     ethr =  1.00E-02,  avg # of iterations =  2.0

     total energy              =    -771.65749001 Ry
     estimated scf accuracy    <       5.60519067 Ry

[...]

     ethr =  5.61E-03,  avg # of iterations =  2.0
     Minimization algorithm failed to find Fermi energy: reverting to bisection
     Possible cause: smearing is larger than the electronic band-gap.

[...]

     End of self-consistent calculation

          k = 0.0000 0.0000 0.0000 ( 16599 PWs)   bands (ev):

   -30.7739 -16.7314 -16.7173 -11.3573 -10.7993 -10.7969  -7.7937  -7.1191
    -6.8827  -6.7728  -6.4473  -6.1792  -2.0881  -1.7963  -1.6032  -1.6006
    -1.5906  -1.5880   4.3640   5.2796   5.3823   5.3860   5.7995   5.8280
     5.8913   5.8918   6.1146   6.4380   6.4490   6.5485   6.7533   7.4114
     7.7332   7.7337   7.8314   7.8340   7.8536   7.8862   7.9217   8.0104
     8.0271   8.3023   8.5697   8.5881   9.0024   9.0904   9.0972   9.1108
     9.1336   9.1439   9.2795  11.6849  12.2817  12.6710  12.9187  14.2620
    14.6112  14.7036  14.7078  15.3517

     occupation numbers
     1.0000   1.0000   1.0000   1.0000   1.0000   1.0000   1.0000   1.0000
     1.0000   1.0000   1.0000   1.0000   1.0000   1.0000   1.0000   1.0000
     1.0000   1.0000   1.0000   1.0000   1.0000   1.0000   1.0000   1.0000
     1.0000   1.0000   1.0000   1.0000   1.0000   1.0000   1.0000   1.0001
     1.0012   1.0012   1.0022   1.0022   1.0025   1.0030   1.0036   1.0059
     1.0064   1.0202   1.0352   1.0354   0.9348   0.8728   0.8673   0.8561
     0.8363   0.8270   0.6868  -0.0000  -0.0000  -0.0000  -0.0000  -0.0000
    -0.0000  -0.0000  -0.0000  -0.0000

     the Fermi energy is     9.4340 ev

!    total energy              =    -771.08201712 Ry
     estimated scf accuracy    <          1.1E-09 Ry
     smearing contrib. (-TS)   =      -0.02211876 Ry
     internal energy E=F+TS    =    -771.05989835 Ry

     The total energy is F=E-TS. E is the sum of the following terms:
     one-electron contribution =    -339.89345168 Ry
     hartree contribution      =     260.88591444 Ry
     xc contribution           =    -234.53634677 Ry
     ewald contribution        =    -457.51601434 Ry

     convergence has been achieved in  81 iterations

     Forces acting on atoms (cartesian axes, Ry/au):

     atom    1 type  1   force =     0.00000000    0.00000000    0.00000000
     atom    2 type  2   force =     0.00000000    0.00000000    0.15280931
     atom    3 type  2   force =     0.00000000    0.00000000   -0.15280931
     atom    4 type  3   force =     0.00000000    0.00000000    0.00000000
     atom    5 type  3   force =     0.00000000    0.00000000    0.03900406
[...]
     Y                11.00    88.90584     Y ( 1.00)
     Ba               10.00   137.32700     Ba( 1.00)
     Cu               11.00    63.54600     Cu( 1.00)
     O                 6.00    15.99900     O ( 1.00)

      8 Sym. Ops., with inversion, found

                                    s                        frac. trans.

      isym =  1     identity

[...]

      isym =  4     180 deg rotation - cart. axis [1,0,0]

[...]

      isym =  5     inversion

[...]

      isym =  8     inv. 180 deg rotation - cart. axis [1,0,0]

 cryst.   s( 8) = (    -1          0          0      )
                  (     0          1          0      )
                  (     0          0          1      )

 cart.    s( 8) = ( -1.0000000  0.0000000  0.0000000 )
                  (  0.0000000  1.0000000  0.0000000 )
                  (  0.0000000  0.0000000  1.0000000 )

     point group D_2h (mmm)
     there are  8 classes
     the character table:

       E     C2    C2'   C2''  i     s_v   s_v'  s_v''
A_g    1.00  1.00  1.00  1.00  1.00  1.00  1.00  1.00
B_1g   1.00  1.00 -1.00 -1.00  1.00  1.00 -1.00 -1.00
B_2g   1.00 -1.00  1.00 -1.00  1.00 -1.00  1.00 -1.00
B_3g   1.00 -1.00 -1.00  1.00  1.00 -1.00 -1.00  1.00
A_u    1.00  1.00  1.00  1.00 -1.00 -1.00 -1.00 -1.00
B_1u   1.00  1.00 -1.00 -1.00 -1.00 -1.00  1.00  1.00
B_2u   1.00 -1.00  1.00 -1.00 -1.00  1.00 -1.00  1.00
B_3u   1.00 -1.00 -1.00  1.00 -1.00  1.00  1.00 -1.00

     the symmetry operations in each class and the name of the first element:

     E        1
          identity
     C2       2
          180 deg rotation - cart. axis [0,0,1]
     C2'      4
          180 deg rotation - cart. axis [1,0,0]
     C2''     3
          180 deg rotation - cart. axis [0,1,0]
     i        5
          inversion
     s_v      6
          inv. 180 deg rotation - cart. axis [0,0,1]
     s_v'     8
          inv. 180 deg rotation - cart. axis [1,0,0]
     s_v''    7
          inv. 180 deg rotation - cart. axis [0,1,0]

   Cartesian axes

     site n.     atom                  positions (alat units)
         1        Y      tau(   1) = (   0.5255925   0.5255886   1.3724927  )
         2        Ba     tau(   2) = (   0.5255925   0.5255886   0.6281712  )
         3        Ba     tau(   3) = (   0.5255925   0.5255886   2.1168141  )
         4        Cu     tau(   4) = (   0.0000000   0.0000000   0.0000000  )
         5        Cu     tau(   5) = (   0.0000000   0.0000000   0.9816612  )
         6        Cu     tau(   6) = (   0.0000000   0.0000000   1.7633241  )
         7        O      tau(   7) = (   0.5255925   0.0000000   0.9989254  )
         8        O      tau(   8) = (   0.5255925   0.0000000   1.7460599  )
         9        O      tau(   9) = (   0.0000000   0.5255886   0.9992320  )
        10        O      tau(  10) = (   0.0000000   0.5255886   1.7457534  )
        11        O      tau(  11) = (   0.0000000   0.0000000   0.4444415  )
        12        O      tau(  12) = (   0.0000000   0.0000000   2.3005438  )

   Crystallographic axes

     site n.     atom                  positions (cryst. coord.)
         1        Y      tau(   1) = (  0.5000000  0.5000000  0.5000000  )
         2        Ba     tau(   2) = (  0.5000000  0.5000000  0.2288432  )
         3        Ba     tau(   3) = (  0.5000000  0.5000000  0.7711568  )
         4        Cu     tau(   4) = (  0.0000000  0.0000000  0.0000000  )
         5        Cu     tau(   5) = (  0.0000000  0.0000000  0.3576198  )
         6        Cu     tau(   6) = (  0.0000000  0.0000000  0.6423802  )
         7        O      tau(   7) = (  0.5000000  0.0000000  0.3639092  )
         8        O      tau(   8) = (  0.5000000  0.0000000  0.6360908  )
         9        O      tau(   9) = (  0.0000000  0.5000000  0.3640209  )
        10        O      tau(  10) = (  0.0000000  0.5000000  0.6359791  )
        11        O      tau(  11) = (  0.0000000  0.0000000  0.1619104  )
        12        O      tau(  12) = (  0.0000000  0.0000000  0.8380896  )

     number of k points=     1  Methfessel-Paxton smearing, width (Ry)=  0.0500
                       cart. coord. in units 2pi/alat
        k(    1) = (   0.0000000   0.0000000   0.0000000), wk =   2.0000000

                       cryst. coord.
        k(    1) = (   0.0000000   0.0000000   0.0000000), wk =   2.0000000

     Initial potential from superposition of free atoms

     starting charge      99.9671, renormalised to     100.0000
     Starting wfcs are   74 randomized atomic wfcs

     Self-consistent Calculation

[...]

     c_bands:  1 eigenvalues not converged
     ethr =  2.74E-06,  avg # of iterations = 20.0

[...]

     ethr =  8.85E-07,  avg # of iterations =  2.0
     Minimization algorithm failed to find Fermi energy: reverting to bisection
     Possible cause: smearing is larger than the electronic band-gap.

[...]

     total energy              =    -771.46229961 Ry
     estimated scf accuracy    <          4.3E-10 Ry

     iteration # 90     ecut=    90.00 Ry     beta= 0.05
     Davidson diagonalization with overlap

     ethr =  3.57E-13,  avg # of iterations =  2.0

[...]

     End of self-consistent calculation

          k = 0.0000 0.0000 0.0000 ( 16511 PWs)   bands (ev):

   -31.8643 -16.0790 -15.9795 -12.3724 -11.8029 -11.8025  -8.1968  -7.9007
    -7.7271  -7.1666  -6.9821  -6.7104  -1.2032  -1.2026  -1.1471  -1.1465
    -1.1216  -0.7451   2.9454   4.7487   4.7489   4.9867   5.4209   5.5887
     5.5896   5.8801   5.8815   6.0300   6.1576   6.2269   6.2370   6.6526
     6.6529   7.4352   7.4372   7.6149   7.6276   7.6947   7.6955   7.6972
     7.7247   7.8326   7.8347   8.1534   8.3933   8.3947   8.5900   8.6016
     8.8821   8.9349   8.9354  11.4693  11.8164  13.9933  14.1799  14.3093
    15.4094  15.4527  16.0134  16.0141

     occupation numbers
     1.0000   1.0000   1.0000   1.0000   1.0000   1.0000   1.0000   1.0000
     1.0000   1.0000   1.0000   1.0000   1.0000   1.0000   1.0000   1.0000
     1.0000   1.0000   1.0000   1.0000   1.0000   1.0000   1.0000   1.0000
     1.0000   1.0000   1.0000   1.0000   1.0000   1.0000   1.0000   1.0000
     1.0000   1.0021   1.0021   1.0057   1.0061   1.0085   1.0085   1.0086
     1.0097   1.0153   1.0154   1.0345   1.0197   1.0194   0.9471   0.9404
     0.6935   0.6319   0.6313  -0.0000  -0.0000  -0.0000  -0.0000  -0.0000
    -0.0000  -0.0000  -0.0000  -0.0000

     the Fermi energy is     9.0424 ev

!    total energy              =    -771.46229961 Ry
     estimated scf accuracy    <          7.5E-11 Ry
     smearing contrib. (-TS)   =      -0.00692249 Ry
     internal energy E=F+TS    =    -771.45537712 Ry

     The total energy is F=E-TS. E is the sum of the following terms:
     one-electron contribution =    -378.11240953 Ry
     hartree contribution      =     278.87036944 Ry
     xc contribution           =    -234.69611371 Ry
     ewald contribution        =    -437.51722332 Ry

     convergence has been achieved in  90 iterations

     negative rho (up, down):  4.001E-03 0.000E+00

     Forces acting on atoms (cartesian axes, Ry/au):

     atom    1 type  1   force =     0.00000000    0.00000000    0.00000000
     atom    2 type  2   force =     0.00000000    0.00000000   -0.00024835
     atom    3 type  2   force =     0.00000000    0.00000000    0.00024835
     atom    4 type  3   force =     0.00000000    0.00000000    0.00000000
     atom    5 type  3   force =     0.00000000    0.00000000    0.00060832
     atom    6 type  3   force =     0.00000000    0.00000000   -0.00060832
     atom    7 type  4   force =     0.00000000    0.00000000   -0.00025482
     atom    8 type  4   force =     0.00000000    0.00000000    0.00025482
     atom    9 type  4   force =     0.00000000    0.00000000   -0.00061442
     atom   10 type  4   force =     0.00000000    0.00000000    0.00061442
     atom   11 type  4   force =     0.00000000    0.00000000    0.00004841
     atom   12 type  4   force =     0.00000000    0.00000000   -0.00004841
     The non-local contrib.  to forces
     atom    1 type  1   force =     0.00000000    0.00000000    0.00000000
     atom    2 type  2   force =     0.00000000    0.00000000   -0.07102217
     atom    3 type  2   force =     0.00000000    0.00000000    0.07102217
     atom    4 type  3   force =     0.00000000    0.00000000    0.00000000
     atom    5 type  3   force =     0.00000000    0.00000000    0.27803940
     atom    6 type  3   force =     0.00000000    0.00000000   -0.27803940
     atom    7 type  4   force =     0.00000000    0.00000000    0.11820177
     atom    8 type  4   force =     0.00000000    0.00000000   -0.11820177
     atom    9 type  4   force =     0.00000000    0.00000000    0.11638154
     atom   10 type  4   force =     0.00000000    0.00000000   -0.11638154
     atom   11 type  4   force =     0.00000000    0.00000000   -0.61840621
     atom   12 type  4   force =     0.00000000    0.00000000    0.61840621
     The ionic contribution  to forces
     atom    1 type  1   force =    -0.00000000    0.00000000    0.00000000
     atom    2 type  2   force =    -0.00000000    0.00000000  -28.14550802
     atom    3 type  2   force =    -0.00000000    0.00000000   28.14550802
     atom    4 type  3   force =     0.00000000   -0.00000000    0.00000000
     atom    5 type  3   force =     0.00000000   -0.00000000  -12.93237806
     atom    6 type  3   force =     0.00000000   -0.00000000   12.93237806
     atom    7 type  4   force =    -0.00000000   -0.00000000   -8.15489982
     atom    8 type  4   force =    -0.00000000   -0.00000000    8.15489982
     atom    9 type  4   force =     0.00000000    0.00000000   -8.14983545
     atom   10 type  4   force =     0.00000000    0.00000000    8.14983545
     atom   11 type  4   force =     0.00000000   -0.00000000   -8.96452355
     atom   12 type  4   force =     0.00000000   -0.00000000    8.96452355
     The local contribution  to forces
     atom    1 type  1   force =    -0.00000000    0.00000000    0.00000000
     atom    2 type  2   force =    -0.00000000    0.00000000   28.22940055
     atom    3 type  2   force =    -0.00000000    0.00000000  -28.22940055
     atom    4 type  3   force =    -0.00000000    0.00000000    0.00000000
     atom    5 type  3   force =    -0.00000000    0.00000000   12.68076103
     atom    6 type  3   force =    -0.00000000    0.00000000  -12.68076103
     atom    7 type  4   force =    -0.00000000    0.00000000    8.03810584
     atom    8 type  4   force =    -0.00000000    0.00000000   -8.03810584
     atom    9 type  4   force =    -0.00000000    0.00000000    8.03447906
     atom   10 type  4   force =     0.00000000    0.00000000   -8.03447906
     atom   11 type  4   force =    -0.00000000   -0.00000000    9.57886841
     atom   12 type  4   force =    -0.00000000   -0.00000000   -9.57886841
     The core correction contribution to forces
     atom    1 type  1   force =     0.00000000   -0.00000000    0.00000000
     atom    2 type  2   force =     0.00000000   -0.00000000   -0.01311957
     atom    3 type  2   force =     0.00000000    0.00000000    0.01311957
     atom    4 type  3   force =    -0.00000000    0.00000000   -0.00000000
     atom    5 type  3   force =     0.00000000   -0.00000000   -0.02581447
     atom    6 type  3   force =    -0.00000000    0.00000000    0.02581447
     atom    7 type  4   force =    -0.00000000    0.00000000   -0.00166209
     atom    8 type  4   force =    -0.00000000    0.00000000    0.00166209
     atom    9 type  4   force =    -0.00000000    0.00000000   -0.00163886
     atom   10 type  4   force =     0.00000000    0.00000000    0.00163886
     atom   11 type  4   force =    -0.00000000    0.00000000    0.00410908
     atom   12 type  4   force =     0.00000000    0.00000000   -0.00410908
     The Hubbard contrib.    to forces
     atom    1 type  1   force =     0.00000000    0.00000000    0.00000000
     atom    2 type  2   force =     0.00000000    0.00000000    0.00000000
     atom    3 type  2   force =     0.00000000    0.00000000    0.00000000
     atom    4 type  3   force =     0.00000000    0.00000000    0.00000000
     atom    5 type  3   force =     0.00000000    0.00000000    0.00000000
     atom    6 type  3   force =     0.00000000    0.00000000    0.00000000
     atom    7 type  4   force =     0.00000000    0.00000000    0.00000000
     atom    8 type  4   force =     0.00000000    0.00000000    0.00000000
     atom    9 type  4   force =     0.00000000    0.00000000    0.00000000
     atom   10 type  4   force =     0.00000000    0.00000000    0.00000000
     atom   11 type  4   force =     0.00000000    0.00000000    0.00000000
     atom   12 type  4   force =     0.00000000    0.00000000    0.00000000
     The SCF correction term to forces
     atom    1 type  1   force =     0.00000000   -0.00000000   -0.00000000
     atom    2 type  2   force =     0.00000000    0.00000000    0.00000085
     atom    3 type  2   force =    -0.00000000   -0.00000000   -0.00000085
     atom    4 type  3   force =    -0.00000000   -0.00000000    0.00000000
     atom    5 type  3   force =     0.00000000    0.00000000    0.00000042
     atom    6 type  3   force =    -0.00000000   -0.00000000   -0.00000042
     atom    7 type  4   force =    -0.00000000   -0.00000000   -0.00000052
     atom    8 type  4   force =     0.00000000    0.00000000    0.00000052
     atom    9 type  4   force =     0.00000000   -0.00000000   -0.00000071
     atom   10 type  4   force =    -0.00000000    0.00000000    0.00000071
     atom   11 type  4   force =    -0.00000000    0.00000000    0.00000068
     atom   12 type  4   force =    -0.00000000   -0.00000000   -0.00000068

     Total force =     0.001324     Total SCF correction =     0.000002

     Computing stress (Cartesian axis) and pressure

     negative rho (up, down):  4.001E-03 0.000E+00
          total   stress  (Ry/bohr**3)                   (kbar)     P=        0.30
   0.00000275   0.00000000   0.00000000            0.40        0.00        0.00
   0.00000000   0.00000279   0.00000000            0.00        0.41        0.00
   0.00000000   0.00000000   0.00000066            0.00        0.00        0.10

     kinetic stress (kbar)  19584.04      0.00      0.00
                                0.00  19583.31      0.00
                                0.00      0.00  18782.69

     local   stress (kbar) -23561.06      0.00      0.00
                                0.00 -23554.89     -0.00
                                0.00     -0.00  18930.49

     nonloc. stress (kbar)   2906.84      0.00      0.00
                                0.00   2906.73      0.00
                                0.00      0.00   2925.65

     hartree stress (kbar)  18904.15     -0.00     -0.00
                               -0.00  18901.24      0.00
                               -0.00      0.00  -1964.61

     exc-cor stress (kbar)   8381.85      0.00      0.00
                                0.00   8381.85      0.00
                                0.00      0.00   8381.85

     corecor stress (kbar) -14429.12      0.00      0.00
                                0.00 -14429.06      0.00
                                0.00      0.00 -14400.77

     ewald   stress (kbar) -11786.29     -0.00     -0.00
                               -0.00 -11788.77     -0.00
                               -0.00     -0.00 -32655.20

     hubbard stress (kbar)      0.00      0.00      0.00
                                0.00      0.00      0.00
                                0.00      0.00      0.00

     DFT-D   stress (kbar)      0.00      0.00      0.00
                                0.00      0.00      0.00
                                0.00      0.00      0.00

     XDM     stress (kbar)      0.00      0.00      0.00
                                0.00      0.00      0.00
                                0.00      0.00      0.00

     dft-nl  stress (kbar)      0.00      0.00      0.00
                                0.00      0.00      0.00
                                0.00      0.00      0.00

     TS-vdW  stress (kbar)      0.00      0.00      0.00
                                0.00      0.00      0.00
                                0.00      0.00      0.00

     MDB     stress (kbar)      0.00      0.00      0.00
                                0.00      0.00      0.00
                                0.00      0.00      0.00

     3D-RISM stress (kbar)      0.00      0.00      0.00
                                0.00      0.00      0.00
                                0.00      0.00      0.00

     Writing all to output data dir ./YBCO.vc-relax/YBCO.vc-relax.save/

     General routines

     Parallel routines

   This run was terminated on:   0:23:43  30Dec2023

   JOB DONE.