     Program PWSCF v.7.2 starts on 31Dec2023 at 21:11:34

     Waiting for input...
     Reading input from standard input

     Current dimensions of program PWSCF are:
     Max number of different atomic species (ntypx) = 10
     Max number of k-points (npk) =  40000
     Max angular momentum in pseudopotentials (lmaxx) =  4
     file Y.pz-spn-rrkjus_psl.1.0.0.UPF: wavefunction(s)  4S renormalized
     file Ba.pz-spn-rrkjus_psl.1.0.0.UPF: wavefunction(s)  5S 6S renormalized
     file Cu.pz-dn-rrkjus_psl.1.0.0.UPF: wavefunction(s)  3D renormalized

     R & G space division:  proc/nbgrp/npool/nimage =       4
     Subspace diagonalization in iterative solution of the eigenvalue problem:
     a serial algorithm will be used

     Using Slab Decomposition

     bravais-lattice index     =            6
     lattice parameter (alat)  =       7.1730  a.u.
     unit-cell volume          =    1125.5476 (a.u.)^3
     number of atoms/cell      =           12
     number of atomic types    =            4
     number of electrons       =       100.00
     number of Kohn-Sham states=           60
     kinetic-energy cutoff     =      60.0000  Ry
     charge density cutoff     =     540.0000  Ry
     scf convergence threshold =      1.0E-08
     mixing beta               =       0.1000
     number of iterations used =            8  plain     mixing
     Exchange-correlation= LDA
                           (   1   1   0   0   0   0   0)

     celldm(1)=   7.172959  celldm(2)=   0.000000  celldm(3)=   3.049782
     celldm(4)=   0.000000  celldm(5)=   0.000000  celldm(6)=   0.000000

     crystal axes: (cart. coord. in units of alat)
               a(1) = (   1.000000   0.000000   0.000000 )
               a(2) = (   0.000000   1.000000   0.000000 )
               a(3) = (   0.000000   0.000000   3.049782 )

     reciprocal axes: (cart. coord. in units 2 pi/alat)
               b(1) = (  1.000000  0.000000  0.000000 )
               b(2) = (  0.000000  1.000000  0.000000 )
               b(3) = (  0.000000  0.000000  0.327892 )

     PseudoPot. # 1 for Y  read from file:
     ~/q-e/pslibrary/pz/PSEUDOPOTENTIALS/Y.pz-spn-rrkjus_psl.1.0.0.UPF
     MD5 check sum: Not computed, couldn't open file
     Pseudo is Ultrasoft + core correction, Zval = 11.0
     Generated using 'atomic' code by A. Dal Corso  v.7.2
     Using radial grid of 1223 points,  6 beta functions with:
                l(1) =   0
                l(2) =   0
                l(3) =   1
                l(4) =   1
                l(5) =   2
                l(6) =   2
     Q(r) pseudized with 0 coefficients

     PseudoPot. # 2 for Ba read from file:
     ~/q-e/pslibrary/pz/PSEUDOPOTENTIALS/Ba.pz-spn-rrkjus_psl.1.0.0.UPF
     MD5 check sum: Not computed, couldn't open file
     Pseudo is Ultrasoft + core correction, Zval = 10.0
     Generated using 'atomic' code by A. Dal Corso  v.7.2
     Using radial grid of 1251 points,  7 beta functions with:
                l(1) =   0
                l(2) =   0
                l(3) =   0
                l(4) =   1
                l(5) =   1
                l(6) =   2
                l(7) =   2
     Q(r) pseudized with 0 coefficients

     PseudoPot. # 3 for Cu read from file:
     ~/q-e/pslibrary/pz/PSEUDOPOTENTIALS/Cu.pz-dn-rrkjus_psl.1.0.0.UPF
     MD5 check sum: Not computed, couldn't open file
     Pseudo is Ultrasoft + core correction, Zval = 11.0
     Generated using 'atomic' code by A. Dal Corso  v.7.2
     Using radial grid of 1199 points,  6 beta functions with:
                l(1) =   0
                l(2) =   0
                l(3) =   1
                l(4) =   1
                l(5) =   2
                l(6) =   2
     Q(r) pseudized with 0 coefficients

     PseudoPot. # 4 for O  read from file:
     ~/q-e/pslibrary/pz/PSEUDOPOTENTIALS/O.pz-n-rrkjus_psl.1.0.0.UPF
     MD5 check sum: Not computed, couldn't open file
     Pseudo is Ultrasoft + core correction, Zval =  6.0
     Generated using 'atomic' code by A. Dal Corso  v.7.2
     Using radial grid of 1095 points,  4 beta functions with:
                l(1) =   0
                l(2) =   0
                l(3) =   1
                l(4) =   1
     Q(r) pseudized with 0 coefficients

     atomic species   valence    mass     pseudopotential
     Y                11.00    88.90584     Y ( 1.00)
     Ba               10.00   137.32700     Ba( 1.00)
     Cu               11.00    63.54600     Cu( 1.00)
     O                 6.00    15.99900     O ( 1.00)

      8 Sym. Ops., with inversion, found

                                    s                        frac. trans.

      isym =  1     identity

 cryst.   s( 1) = (     1          0          0      )
                  (     0          1          0      )
                  (     0          0          1      )

 cart.    s( 1) = (  1.0000000  0.0000000  0.0000000 )
                  (  0.0000000  1.0000000  0.0000000 )
                  (  0.0000000  0.0000000  1.0000000 )

      isym =  2     180 deg rotation - cart. axis [0,0,1]

[...]

      isym =  4     180 deg rotation - cart. axis [1,0,0]

[...]

      isym =  5     inversion

[...]

      isym =  6     inv. 180 deg rotation - cart. axis [0,0,1]

[...]

      isym =  8     inv. 180 deg rotation - cart. axis [1,0,0]

 cryst.   s( 8) = (    -1          0          0      )
                  (     0          1          0      )
                  (     0          0          1      )

 cart.    s( 8) = ( -1.0000000  0.0000000  0.0000000 )
                  (  0.0000000  1.0000000  0.0000000 )
                  (  0.0000000  0.0000000  1.0000000 )

     point group D_2h (mmm)
     there are  8 classes
     the character table:

       E     C2    C2'   C2''  i     s_v   s_v'  s_v''
A_g    1.00  1.00  1.00  1.00  1.00  1.00  1.00  1.00
B_1g   1.00  1.00 -1.00 -1.00  1.00  1.00 -1.00 -1.00
B_2g   1.00 -1.00  1.00 -1.00  1.00 -1.00  1.00 -1.00
B_3g   1.00 -1.00 -1.00  1.00  1.00 -1.00 -1.00  1.00
A_u    1.00  1.00  1.00  1.00 -1.00 -1.00 -1.00 -1.00
B_1u   1.00  1.00 -1.00 -1.00 -1.00 -1.00  1.00  1.00
B_2u   1.00 -1.00  1.00 -1.00 -1.00  1.00 -1.00  1.00
B_3u   1.00 -1.00 -1.00  1.00 -1.00  1.00  1.00 -1.00

     the symmetry operations in each class and the name of the first element:

     E        1
          identity
     C2       2
          180 deg rotation - cart. axis [0,0,1]
     C2'      4
          180 deg rotation - cart. axis [1,0,0]
     C2''     3
          180 deg rotation - cart. axis [0,1,0]
     i        5
          inversion
     s_v      6
          inv. 180 deg rotation - cart. axis [0,0,1]
     s_v'     8
          inv. 180 deg rotation - cart. axis [1,0,0]
     s_v''    7
          inv. 180 deg rotation - cart. axis [0,1,0]

   Cartesian axes

     site n.     atom                  positions (alat units)
         1        Y      tau(   1) = (   0.5000000   0.5000000   1.5248910  )
         2        Ba     tau(   2) = (   0.5000000   0.5000000   0.5933142  )
         3        Ba     tau(   3) = (   0.5000000   0.5000000   2.4564678  )
         4        Cu     tau(   4) = (   0.0000000   0.0000000   0.0000000  )
         5        Cu     tau(   5) = (   0.0000000   0.0000000   1.1052738  )
         6        Cu     tau(   6) = (   0.0000000   0.0000000   1.9445082  )
         7        O      tau(   7) = (   0.5000000   0.0000000   1.1538851  )
         8        O      tau(   8) = (   0.5000000   0.0000000   1.8958969  )
         9        O      tau(   9) = (   0.0000000   0.5000000   1.1539576  )
        10        O      tau(  10) = (   0.0000000   0.5000000   1.8958244  )
        11        O      tau(  11) = (   0.0000000   0.0000000   0.4628128  )
        12        O      tau(  12) = (   0.0000000   0.0000000   2.5869691  )

   Crystallographic axes

     site n.     atom                  positions (cryst. coord.)
         1        Y      tau(   1) = (  0.5000000  0.5000000  0.5000000  )
         2        Ba     tau(   2) = (  0.5000000  0.5000000  0.1945431  )
         3        Ba     tau(   3) = (  0.5000000  0.5000000  0.8054569  )
         4        Cu     tau(   4) = (  0.0000000  0.0000000  0.0000000  )
         5        Cu     tau(   5) = (  0.0000000  0.0000000  0.3624108  )
         6        Cu     tau(   6) = (  0.0000000  0.0000000  0.6375892  )
         7        O      tau(   7) = (  0.5000000  0.0000000  0.3783500  )
         8        O      tau(   8) = (  0.5000000  0.0000000  0.6216500  )
         9        O      tau(   9) = (  0.0000000  0.5000000  0.3783738  )
        10        O      tau(  10) = (  0.0000000  0.5000000  0.6216262  )
        11        O      tau(  11) = (  0.0000000  0.0000000  0.1517528  )
        12        O      tau(  12) = (  0.0000000  0.0000000  0.8482472  )

     number of k points=    27  Methfessel-Paxton smearing, width (Ry)=  0.0100
                       cart. coord. in units 2pi/alat
        k(    1) = (   0.0000000   0.0000000   0.0000000), wk =   0.0312500
        k(    2) = (   0.0000000   0.0000000   0.0819731), wk =   0.0625000
        k(    3) = (   0.0000000   0.0000000  -0.1639461), wk =   0.0312500
        k(    4) = (   0.0000000   0.2500000   0.0000000), wk =   0.0625000
        k(    5) = (   0.0000000   0.2500000   0.0819731), wk =   0.1250000
        k(    6) = (   0.0000000   0.2500000  -0.1639461), wk =   0.0625000
        k(    7) = (   0.0000000  -0.5000000   0.0000000), wk =   0.0312500
        k(    8) = (   0.0000000  -0.5000000   0.0819731), wk =   0.0625000
        k(    9) = (   0.0000000  -0.5000000  -0.1639461), wk =   0.0312500
        k(   10) = (   0.2500000   0.2500000   0.0000000), wk =   0.1250000
        k(   11) = (   0.2500000   0.2500000   0.0819731), wk =   0.2500000
        k(   12) = (   0.2500000   0.2500000  -0.1639461), wk =   0.1250000
        k(   13) = (   0.2500000  -0.5000000   0.0000000), wk =   0.0625000
        k(   14) = (   0.2500000  -0.5000000   0.0819731), wk =   0.1250000
        k(   15) = (   0.2500000  -0.5000000  -0.1639461), wk =   0.0625000
        k(   16) = (  -0.5000000  -0.5000000   0.0000000), wk =   0.0312500
        k(   17) = (  -0.5000000  -0.5000000   0.0819731), wk =   0.0625000
        k(   18) = (  -0.5000000  -0.5000000  -0.1639461), wk =   0.0312500
        k(   19) = (   0.2500000   0.0000000   0.0000000), wk =   0.0625000
        k(   20) = (   0.2500000   0.0000000  -0.0819731), wk =   0.1250000
        k(   21) = (   0.2500000   0.0000000   0.1639461), wk =   0.0625000
        k(   22) = (  -0.5000000   0.0000000   0.0000000), wk =   0.0312500
        k(   23) = (  -0.5000000   0.0000000  -0.0819731), wk =   0.0625000
        k(   24) = (  -0.5000000   0.0000000   0.1639461), wk =   0.0312500
        k(   25) = (  -0.5000000   0.2500000   0.0000000), wk =   0.0625000
        k(   26) = (  -0.5000000   0.2500000  -0.0819731), wk =   0.1250000
        k(   27) = (  -0.5000000   0.2500000   0.1639461), wk =   0.0625000

                       cryst. coord.
        k(    1) = (   0.0000000   0.0000000   0.0000000), wk =   0.0312500
        k(    2) = (   0.0000000   0.0000000   0.2500000), wk =   0.0625000
        k(    3) = (   0.0000000   0.0000000  -0.5000000), wk =   0.0312500
        k(    4) = (   0.0000000   0.2500000   0.0000000), wk =   0.0625000
        k(    5) = (   0.0000000   0.2500000   0.2500000), wk =   0.1250000
        k(    6) = (   0.0000000   0.2500000  -0.5000000), wk =   0.0625000
        k(    7) = (   0.0000000  -0.5000000   0.0000000), wk =   0.0312500
        k(    8) = (   0.0000000  -0.5000000   0.2500000), wk =   0.0625000
        k(    9) = (   0.0000000  -0.5000000  -0.5000000), wk =   0.0312500
        k(   10) = (   0.2500000   0.2500000   0.0000000), wk =   0.1250000
        k(   11) = (   0.2500000   0.2500000   0.2500000), wk =   0.2500000
        k(   12) = (   0.2500000   0.2500000  -0.5000000), wk =   0.1250000
        k(   13) = (   0.2500000  -0.5000000   0.0000000), wk =   0.0625000
        k(   14) = (   0.2500000  -0.5000000   0.2500000), wk =   0.1250000
        k(   15) = (   0.2500000  -0.5000000  -0.5000000), wk =   0.0625000
        k(   16) = (  -0.5000000  -0.5000000   0.0000000), wk =   0.0312500
        k(   17) = (  -0.5000000  -0.5000000   0.2500000), wk =   0.0625000
        k(   18) = (  -0.5000000  -0.5000000  -0.5000000), wk =   0.0312500
        k(   19) = (   0.2500000   0.0000000   0.0000000), wk =   0.0625000
        k(   20) = (   0.2500000   0.0000000  -0.2500000), wk =   0.1250000
        k(   21) = (   0.2500000   0.0000000   0.5000000), wk =   0.0625000
        k(   22) = (  -0.5000000   0.0000000   0.0000000), wk =   0.0312500
        k(   23) = (  -0.5000000   0.0000000  -0.2500000), wk =   0.0625000
        k(   24) = (  -0.5000000   0.0000000   0.5000000), wk =   0.0312500
        k(   25) = (  -0.5000000   0.2500000   0.0000000), wk =   0.0625000
        k(   26) = (  -0.5000000   0.2500000  -0.2500000), wk =   0.1250000
        k(   27) = (  -0.5000000   0.2500000   0.5000000), wk =   0.0625000

     Initial potential from superposition of free atoms

     starting charge      99.9671, renormalised to     100.0000
     Starting wfcs are   74 randomized atomic wfcs

     Self-consistent Calculation

     iteration #  1     ecut=    60.00 Ry     beta= 0.10
     Davidson diagonalization with overlap

     ethr =  1.00E-02,  avg # of iterations =  4.7

     total energy              =    -771.73551204 Ry
     estimated scf accuracy    <       4.04602832 Ry

[...]

     c_bands:  2 eigenvalues not converged
     c_bands:  2 eigenvalues not converged
     ethr =  4.34E-05,  avg # of iterations =  7.6

[...]

     c_bands:  1 eigenvalues not converged
     ethr =  1.38E-06,  avg # of iterations =  6.6

[...]

     total energy              =    -771.71980182 Ry
     estimated scf accuracy    <       0.00000002 Ry

     iteration # 60     ecut=    60.00 Ry     beta= 0.10
     Davidson diagonalization with overlap

     ethr =  2.11E-11,  avg # of iterations =  1.6

     End of self-consistent calculation

          k = 0.0000 0.0000 0.0000 (  8853 PWs)   bands (ev):

   -30.9629 -16.0503 -16.0447 -11.7820 -11.0475 -11.0475  -8.7025  -7.5020
    -7.3890  -7.0834  -6.6631  -6.3088  -1.3859  -1.1634  -0.8574  -0.8574
    -0.8551  -0.8551   4.5066   4.5067   4.7414   4.9255   4.9258   5.1149
     5.8495   6.4919   7.0359   7.0359   7.0423   7.1085   7.1192   7.3208
     7.3212   7.3522   7.3668   7.3670   7.8651   7.8662   7.8705   7.9842
     8.0168   8.0170   8.2577   8.3153   8.4916   8.5786   8.5840   8.5842
     8.7099  10.1739  10.1739  12.2952  13.1520  13.3013  13.4696  14.4100
    15.0094  15.1046  16.0411  16.1616

     occupation numbers
     1.0000   1.0000   1.0000   1.0000   1.0000   1.0000   1.0000   1.0000
     1.0000   1.0000   1.0000   1.0000   1.0000   1.0000   1.0000   1.0000
     1.0000   1.0000   1.0000   1.0000   1.0000   1.0000   1.0000   1.0000
     1.0000   1.0000   1.0000   1.0000   1.0000   1.0000   1.0000   1.0000
     1.0000   1.0000   1.0000   1.0000   1.0000   1.0000   1.0000   1.0000
     1.0000   1.0000   1.0000   1.0000   1.0000   1.0000   1.0000   1.0000
     1.0000   1.0246   1.0246  -0.0000  -0.0000  -0.0000  -0.0000  -0.0000
    -0.0000  -0.0000  -0.0000  -0.0000

[...]

          k =-0.5000-0.5000 0.0000 (  8856 PWs)   bands (ev):

[...]

          k = 0.2500 0.0000 0.1639 (  8814 PWs)   bands (ev):

[...]

          k =-0.5000 0.2500 0.1639 (  8836 PWs)   bands (ev):

   -30.9362 -15.8526 -15.8436 -11.7621 -11.4109 -11.3274  -7.8156  -7.3556
    -7.3432  -7.1243  -6.8607  -6.5173  -1.3942  -1.3921  -1.3370  -1.3295
    -1.1847  -1.1547   2.8222   3.3039   4.3632   4.5107   4.5725   4.9151
     5.1783   5.3752   5.8992   6.1392   6.4004   6.4040   6.8159   6.8993
     7.4953   7.6285   7.7491   7.7887   7.8978   8.1571   8.4251   8.5548
     8.5903   8.6114   8.6415   8.6841   8.8135   9.1444   9.3006   9.9250
     9.9510  10.8994  11.0697  12.5076  13.5614  13.7842  14.6197  15.6151
    15.6243  15.9464  16.0821  16.8022

     occupation numbers
     1.0000   1.0000   1.0000   1.0000   1.0000   1.0000   1.0000   1.0000
     1.0000   1.0000   1.0000   1.0000   1.0000   1.0000   1.0000   1.0000
     1.0000   1.0000   1.0000   1.0000   1.0000   1.0000   1.0000   1.0000
     1.0000   1.0000   1.0000   1.0000   1.0000   1.0000   1.0000   1.0000
     1.0000   1.0000   1.0000   1.0000   1.0000   1.0000   1.0000   1.0000
     1.0000   1.0000   1.0000   1.0000   1.0000   1.0000   1.0000   1.0000
     1.0000  -0.0000  -0.0000  -0.0000  -0.0000  -0.0000  -0.0000  -0.0000
    -0.0000  -0.0000  -0.0000  -0.0000

     the Fermi energy is    10.3872 ev

!    total energy              =    -771.71980182 Ry
     estimated scf accuracy    <          1.4E-09 Ry
     smearing contrib. (-TS)   =      -0.00004572 Ry
     internal energy E=F+TS    =    -771.71975610 Ry

     The total energy is F=E-TS. E is the sum of the following terms:
     one-electron contribution =    -358.57899793 Ry
     hartree contribution      =     269.96987340 Ry
     xc contribution           =    -234.62980213 Ry
     ewald contribution        =    -448.48082944 Ry

     convergence has been achieved in  60 iterations

     Writing all to output data dir ./YBCO6/YBCO6.save/

     General routines

     Parallel routines

   This run was terminated on:  21:15:51  31Dec2023

   JOB DONE.