     Program PWSCF v.7.2 starts on 31Dec2023 at 18:40:30

     Waiting for input...
     Reading input from standard input

     Current dimensions of program PWSCF are:
     Max number of different atomic species (ntypx) = 10
     Max number of k-points (npk) =  40000
     Max angular momentum in pseudopotentials (lmaxx) =  4
     file Y.pz-spn-rrkjus_psl.1.0.0.UPF: wavefunction(s)  4S renormalized
     file Ba.pz-spn-rrkjus_psl.1.0.0.UPF: wavefunction(s)  5S 6S renormalized
     file Cu.pz-dn-rrkjus_psl.1.0.0.UPF: wavefunction(s)  3D renormalized

     R & G space division:  proc/nbgrp/npool/nimage =       4
     Subspace diagonalization in iterative solution of the eigenvalue problem:
     a serial algorithm will be used

     Using Slab Decomposition

     bravais-lattice index     =            6
     lattice parameter (alat)  =       7.2264  a.u.
     unit-cell volume          =    1152.6629 (a.u.)^3
     number of atoms/cell      =           12
     number of atomic types    =            4
     number of electrons       =       100.00
     number of Kohn-Sham states=           60
     kinetic-energy cutoff     =      90.0000  Ry
     charge density cutoff     =     720.0000  Ry
     scf convergence threshold =      1.0E-08
     mixing beta               =       0.0500
     number of iterations used =            8  plain     mixing
     energy convergence thresh.=      1.0E-04
     force convergence thresh. =      1.0E-03
     press convergence thresh. =      5.0E-01
     Exchange-correlation= LDA
                           (   1   1   0   0   0   0   0)
     nstep                     =           50

     celldm(1)=   7.226353  celldm(2)=   0.000000  celldm(3)=   3.054532
     celldm(4)=   0.000000  celldm(5)=   0.000000  celldm(6)=   0.000000

     crystal axes: (cart. coord. in units of alat)
               a(1) = (   1.000000   0.000000   0.000000 )
               a(2) = (   0.000000   1.000000   0.000000 )
               a(3) = (   0.000000   0.000000   3.054532 )

     reciprocal axes: (cart. coord. in units 2 pi/alat)
               b(1) = (  1.000000  0.000000  0.000000 )
               b(2) = (  0.000000  1.000000  0.000000 )
               b(3) = (  0.000000  0.000000  0.327382 )

     PseudoPot. # 1 for Y  read from file:
     ~/q-e/pslibrary/pz/PSEUDOPOTENTIALS/Y.pz-spn-rrkjus_psl.1.0.0.UPF
     MD5 check sum: Not computed, couldn't open file
     Pseudo is Ultrasoft + core correction, Zval = 11.0
     Generated using 'atomic' code by A. Dal Corso  v.7.2
     Using radial grid of 1223 points,  6 beta functions with:
                l(1) =   0
                l(2) =   0
                l(3) =   1
                l(4) =   1
                l(5) =   2
                l(6) =   2
     Q(r) pseudized with 0 coefficients

[...]

     PseudoPot. # 3 for Cu read from file:
     ~/q-e/pslibrary/pz/PSEUDOPOTENTIALS/Cu.pz-dn-rrkjus_psl.1.0.0.UPF
     MD5 check sum: Not computed, couldn't open file
     Pseudo is Ultrasoft + core correction, Zval = 11.0
     Generated using 'atomic' code by A. Dal Corso  v.7.2
     Using radial grid of 1199 points,  6 beta functions with:
                l(1) =   0
                l(2) =   0
                l(3) =   1
                l(4) =   1
                l(5) =   2
                l(6) =   2
     Q(r) pseudized with 0 coefficients

     PseudoPot. # 4 for O  read from file:
     ~/q-e/pslibrary/pz/PSEUDOPOTENTIALS/O.pz-n-rrkjus_psl.1.0.0.UPF
     MD5 check sum: Not computed, couldn't open file
     Pseudo is Ultrasoft + core correction, Zval =  6.0
     Generated using 'atomic' code by A. Dal Corso  v.7.2
     Using radial grid of 1095 points,  4 beta functions with:
                l(1) =   0
                l(2) =   0
                l(3) =   1
                l(4) =   1
     Q(r) pseudized with 0 coefficients

     atomic species   valence    mass     pseudopotential
     Y                11.00    88.90584     Y ( 1.00)
     Ba               10.00   137.32700     Ba( 1.00)
     Cu               11.00    63.54600     Cu( 1.00)
     O                 6.00    15.99900     O ( 1.00)

      8 Sym. Ops., with inversion, found

                                    s                        frac. trans.

      isym =  1     identity

 cryst.   s( 1) = (     1          0          0      )
                  (     0          1          0      )
                  (     0          0          1      )

 cart.    s( 1) = (  1.0000000  0.0000000  0.0000000 )
                  (  0.0000000  1.0000000  0.0000000 )
                  (  0.0000000  0.0000000  1.0000000 )

      isym =  2     180 deg rotation - cart. axis [0,0,1]

[...]

      isym =  5     inversion

[...]

      isym =  6     inv. 180 deg rotation - cart. axis [0,0,1]

[...]

     point group D_2h (mmm)
     there are  8 classes
     the character table:

       E     C2    C2'   C2''  i     s_v   s_v'  s_v''
A_g    1.00  1.00  1.00  1.00  1.00  1.00  1.00  1.00
B_1g   1.00  1.00 -1.00 -1.00  1.00  1.00 -1.00 -1.00
B_2g   1.00 -1.00  1.00 -1.00  1.00 -1.00  1.00 -1.00
B_3g   1.00 -1.00 -1.00  1.00  1.00 -1.00 -1.00  1.00
A_u    1.00  1.00  1.00  1.00 -1.00 -1.00 -1.00 -1.00
B_1u   1.00  1.00 -1.00 -1.00 -1.00 -1.00  1.00  1.00
B_2u   1.00 -1.00  1.00 -1.00 -1.00  1.00 -1.00  1.00
B_3u   1.00 -1.00 -1.00  1.00 -1.00  1.00  1.00 -1.00

     the symmetry operations in each class and the name of the first element:

     E        1
          identity
     C2       2
          180 deg rotation - cart. axis [0,0,1]
     C2'      4
          180 deg rotation - cart. axis [1,0,0]
     C2''     3
          180 deg rotation - cart. axis [0,1,0]
     i        5
          inversion
     s_v      6
          inv. 180 deg rotation - cart. axis [0,0,1]
     s_v'     8
          inv. 180 deg rotation - cart. axis [1,0,0]
     s_v''    7
          inv. 180 deg rotation - cart. axis [0,1,0]

   Cartesian axes

     site n.     atom                  positions (alat units)
         1        Y      tau(   1) = (   0.5000000   0.5000000   1.5272661  )
         2        Ba     tau(   2) = (   0.5000000   0.5000000   0.5684391  )
         3        Ba     tau(   3) = (   0.5000000   0.5000000   2.4860930  )
         4        Cu     tau(   4) = (   0.0000000   0.0000000   0.0000000  )
         5        Cu     tau(   5) = (   0.0000000   0.0000000   1.0903646  )
         6        Cu     tau(   6) = (   0.0000000   0.0000000   1.9641676  )
         7        O      tau(   7) = (   0.5000000   0.0000000   1.1518692  )
         8        O      tau(   8) = (   0.5000000   0.0000000   1.9026629  )
         9        O      tau(   9) = (   0.0000000   0.5000000   1.1485454  )
        10        O      tau(  10) = (   0.0000000   0.5000000   1.9059868  )
        11        O      tau(  11) = (   0.0000000   0.0000000   0.4762684  )
        12        O      tau(  12) = (   0.0000000   0.0000000   2.5782637  )

   Crystallographic axes

     site n.     atom                  positions (cryst. coord.)
         1        Y      tau(   1) = (  0.5000000  0.5000000  0.5000000  )
         2        Ba     tau(   2) = (  0.5000000  0.5000000  0.1860969  )
         3        Ba     tau(   3) = (  0.5000000  0.5000000  0.8139031  )
         4        Cu     tau(   4) = (  0.0000000  0.0000000  0.0000000  )
         5        Cu     tau(   5) = (  0.0000000  0.0000000  0.3569661  )
         6        Cu     tau(   6) = (  0.0000000  0.0000000  0.6430339  )
         7        O      tau(   7) = (  0.5000000  0.0000000  0.3771017  )
         8        O      tau(   8) = (  0.5000000  0.0000000  0.6228983  )
         9        O      tau(   9) = (  0.0000000  0.5000000  0.3760135  )
        10        O      tau(  10) = (  0.0000000  0.5000000  0.6239865  )
        11        O      tau(  11) = (  0.0000000  0.0000000  0.1559219  )
        12        O      tau(  12) = (  0.0000000  0.0000000  0.8440781  )

     number of k points=    27  Methfessel-Paxton smearing, width (Ry)=  0.0500
                       cart. coord. in units 2pi/alat
        k(    1) = (   0.0000000   0.0000000   0.0000000), wk =   0.0312500
        k(    2) = (   0.0000000   0.0000000   0.0818456), wk =   0.0625000
        k(    3) = (   0.0000000   0.0000000  -0.1636912), wk =   0.0312500
        k(    4) = (   0.0000000   0.2500000   0.0000000), wk =   0.0625000
        k(    5) = (   0.0000000   0.2500000   0.0818456), wk =   0.1250000
        k(    6) = (   0.0000000   0.2500000  -0.1636912), wk =   0.0625000
        k(    7) = (   0.0000000  -0.5000000   0.0000000), wk =   0.0312500
        k(    8) = (   0.0000000  -0.5000000   0.0818456), wk =   0.0625000
        k(    9) = (   0.0000000  -0.5000000  -0.1636912), wk =   0.0312500
        k(   10) = (   0.2500000   0.2500000   0.0000000), wk =   0.1250000
        k(   11) = (   0.2500000   0.2500000   0.0818456), wk =   0.2500000
        k(   12) = (   0.2500000   0.2500000  -0.1636912), wk =   0.1250000
        k(   13) = (   0.2500000  -0.5000000   0.0000000), wk =   0.0625000
        k(   14) = (   0.2500000  -0.5000000   0.0818456), wk =   0.1250000
        k(   15) = (   0.2500000  -0.5000000  -0.1636912), wk =   0.0625000
        k(   16) = (  -0.5000000  -0.5000000   0.0000000), wk =   0.0312500
        k(   17) = (  -0.5000000  -0.5000000   0.0818456), wk =   0.0625000
        k(   18) = (  -0.5000000  -0.5000000  -0.1636912), wk =   0.0312500
        k(   19) = (   0.2500000   0.0000000   0.0000000), wk =   0.0625000
        k(   20) = (   0.2500000   0.0000000  -0.0818456), wk =   0.1250000
        k(   21) = (   0.2500000   0.0000000   0.1636912), wk =   0.0625000
        k(   22) = (  -0.5000000   0.0000000   0.0000000), wk =   0.0312500
        k(   23) = (  -0.5000000   0.0000000  -0.0818456), wk =   0.0625000
        k(   24) = (  -0.5000000   0.0000000   0.1636912), wk =   0.0312500
        k(   25) = (  -0.5000000   0.2500000   0.0000000), wk =   0.0625000
        k(   26) = (  -0.5000000   0.2500000  -0.0818456), wk =   0.1250000
        k(   27) = (  -0.5000000   0.2500000   0.1636912), wk =   0.0625000

                       cryst. coord.
        k(    1) = (   0.0000000   0.0000000   0.0000000), wk =   0.0312500
        k(    2) = (   0.0000000   0.0000000   0.2500000), wk =   0.0625000
        k(    3) = (   0.0000000   0.0000000  -0.5000000), wk =   0.0312500
        k(    4) = (   0.0000000   0.2500000   0.0000000), wk =   0.0625000
        k(    5) = (   0.0000000   0.2500000   0.2500000), wk =   0.1250000
        k(    6) = (   0.0000000   0.2500000  -0.5000000), wk =   0.0625000
        k(    7) = (   0.0000000  -0.5000000   0.0000000), wk =   0.0312500
        k(    8) = (   0.0000000  -0.5000000   0.2500000), wk =   0.0625000
        k(    9) = (   0.0000000  -0.5000000  -0.5000000), wk =   0.0312500
        k(   10) = (   0.2500000   0.2500000   0.0000000), wk =   0.1250000
        k(   11) = (   0.2500000   0.2500000   0.2500000), wk =   0.2500000
        k(   12) = (   0.2500000   0.2500000  -0.5000000), wk =   0.1250000
        k(   13) = (   0.2500000  -0.5000000   0.0000000), wk =   0.0625000
        k(   14) = (   0.2500000  -0.5000000   0.2500000), wk =   0.1250000
[...]
        10        O      tau(  10) = (  0.0000000  0.5000000  0.6216262  )
        11        O      tau(  11) = (  0.0000000  0.0000000  0.1517528  )
        12        O      tau(  12) = (  0.0000000  0.0000000  0.8482472  )

     number of k points=    27  Methfessel-Paxton smearing, width (Ry)=  0.0500
                       cart. coord. in units 2pi/alat
        k(    1) = (   0.0000000   0.0000000   0.0000000), wk =   0.0312500
        k(    2) = (   0.0000000   0.0000000   0.0818663), wk =   0.0625000
        k(    3) = (   0.0000000   0.0000000  -0.1637326), wk =   0.0312500
        k(    4) = (   0.0000000   0.2525121   0.0000000), wk =   0.0625000
        k(    5) = (   0.0000000   0.2525121   0.0818663), wk =   0.1250000
        k(    6) = (   0.0000000   0.2525121  -0.1637326), wk =   0.0625000
        k(    7) = (   0.0000000  -0.5050242   0.0000000), wk =   0.0312500
        k(    8) = (   0.0000000  -0.5050242   0.0818663), wk =   0.0625000
        k(    9) = (   0.0000000  -0.5050242  -0.1637326), wk =   0.0312500
        k(   10) = (   0.2525130   0.2525121   0.0000000), wk =   0.1250000
        k(   11) = (   0.2525130   0.2525121   0.0818663), wk =   0.2500000
        k(   12) = (   0.2525130   0.2525121  -0.1637326), wk =   0.1250000
        k(   13) = (   0.2525130  -0.5050242   0.0000000), wk =   0.0625000
        k(   14) = (   0.2525130  -0.5050242   0.0818663), wk =   0.1250000
        k(   15) = (   0.2525130  -0.5050242  -0.1637326), wk =   0.0625000
        k(   16) = (  -0.5050259  -0.5050242   0.0000000), wk =   0.0312500
        k(   17) = (  -0.5050259  -0.5050242   0.0818663), wk =   0.0625000
        k(   18) = (  -0.5050259  -0.5050242  -0.1637326), wk =   0.0312500
        k(   19) = (   0.2525130   0.0000000   0.0000000), wk =   0.0625000
        k(   20) = (   0.2525130   0.0000000  -0.0818663), wk =   0.1250000
        k(   21) = (   0.2525130   0.0000000   0.1637326), wk =   0.0625000
        k(   22) = (  -0.5050259   0.0000000   0.0000000), wk =   0.0312500
        k(   23) = (  -0.5050259   0.0000000  -0.0818663), wk =   0.0625000
        k(   24) = (  -0.5050259   0.0000000   0.1637326), wk =   0.0312500
        k(   25) = (  -0.5050259   0.2525121   0.0000000), wk =   0.0625000
        k(   26) = (  -0.5050259   0.2525121  -0.0818663), wk =   0.1250000
        k(   27) = (  -0.5050259   0.2525121   0.1637326), wk =   0.0625000

                       cryst. coord.
        k(    1) = (   0.0000000   0.0000000   0.0000000), wk =   0.0312500
        k(    2) = (   0.0000000   0.0000000   0.2500000), wk =   0.0625000
        k(    3) = (   0.0000000   0.0000000  -0.5000000), wk =   0.0312500
        k(    4) = (   0.0000000   0.2500000   0.0000000), wk =   0.0625000
        k(    5) = (   0.0000000   0.2500000   0.2500000), wk =   0.1250000
        k(    6) = (   0.0000000   0.2500000  -0.5000000), wk =   0.0625000
        k(    7) = (   0.0000000  -0.5000000   0.0000000), wk =   0.0312500
        k(    8) = (   0.0000000  -0.5000000   0.2500000), wk =   0.0625000
        k(    9) = (   0.0000000  -0.5000000  -0.5000000), wk =   0.0312500
        k(   10) = (   0.2500000   0.2500000   0.0000000), wk =   0.1250000
        k(   11) = (   0.2500000   0.2500000   0.2500000), wk =   0.2500000
        k(   12) = (   0.2500000   0.2500000  -0.5000000), wk =   0.1250000
        k(   13) = (   0.2500000  -0.5000000   0.0000000), wk =   0.0625000
        k(   14) = (   0.2500000  -0.5000000   0.2500000), wk =   0.1250000
        k(   15) = (   0.2500000  -0.5000000  -0.5000000), wk =   0.0625000
        k(   16) = (  -0.5000000  -0.5000000   0.0000000), wk =   0.0312500
        k(   17) = (  -0.5000000  -0.5000000   0.2500000), wk =   0.0625000
        k(   18) = (  -0.5000000  -0.5000000  -0.5000000), wk =   0.0312500
        k(   19) = (   0.2500000   0.0000000   0.0000000), wk =   0.0625000
        k(   20) = (   0.2500000   0.0000000  -0.2500000), wk =   0.1250000
        k(   21) = (   0.2500000   0.0000000   0.5000000), wk =   0.0625000
        k(   22) = (  -0.5000000   0.0000000   0.0000000), wk =   0.0312500
        k(   23) = (  -0.5000000   0.0000000  -0.2500000), wk =   0.0625000
        k(   24) = (  -0.5000000   0.0000000   0.5000000), wk =   0.0312500
        k(   25) = (  -0.5000000   0.2500000   0.0000000), wk =   0.0625000
        k(   26) = (  -0.5000000   0.2500000  -0.2500000), wk =   0.1250000
        k(   27) = (  -0.5000000   0.2500000   0.5000000), wk =   0.0625000

     Initial potential from superposition of free atoms

     starting charge      99.9671, renormalised to     100.0000
     Starting wfcs are   74 randomized atomic wfcs

     Self-consistent Calculation

[...]

     c_bands:  2 eigenvalues not converged
     ethr =  1.82E-06,  avg # of iterations =  4.7

[...]

     total energy              =    -771.72484591 Ry
     estimated scf accuracy    <          4.4E-10 Ry

     iteration #111     ecut=    90.00 Ry     beta= 0.05
     Davidson diagonalization with overlap

     ethr =  4.16E-13,  avg # of iterations =  1.5

     End of self-consistent calculation

[...]

          k = 0.2525 0.0000 0.1637 ( 16268 PWs)   bands (ev):

[...]

          k =-0.5050 0.2525 0.1637 ( 16288 PWs)   bands (ev):

   -30.9202 -15.9387 -15.9308 -11.7321 -11.3842 -11.2954  -7.7844  -7.3205
    -7.3097  -7.1122  -6.9688  -6.6390  -1.4885  -1.4649  -1.4354  -1.4083
    -1.2716  -1.2356   2.8607   3.3231   4.3993   4.5357   4.5862   4.9301
     5.1164   5.4033   5.9237   6.1445   6.3434   6.4022   6.7211   6.8538
     7.5685   7.6247   7.6564   7.6981   7.9288   8.1557   8.2781   8.4113
     8.5832   8.6531   8.6618   8.7466   8.8861   9.1858   9.1949   9.7267
     9.7554  10.9939  11.1599  12.3707  13.5273  13.6305  14.6739  15.5188
    15.5536  15.8420  16.0191  16.9041

     occupation numbers
     1.0000   1.0000   1.0000   1.0000   1.0000   1.0000   1.0000   1.0000
     1.0000   1.0000   1.0000   1.0000   1.0000   1.0000   1.0000   1.0000
     1.0000   1.0000   1.0000   1.0000   1.0000   1.0000   1.0000   1.0000
     1.0000   1.0000   1.0000   1.0000   1.0000   1.0000   1.0000   1.0000
     1.0000   1.0000   1.0000   1.0000   1.0000   1.0000   1.0001   1.0002
     1.0008   1.0013   1.0014   1.0023   1.0051   1.0189   1.0194   1.0110
     1.0029  -0.0211  -0.0354  -0.0001  -0.0000  -0.0000  -0.0000  -0.0000
    -0.0000  -0.0000  -0.0000  -0.0000

     the Fermi energy is    10.3374 ev

!    total energy              =    -771.72484591 Ry
     estimated scf accuracy    <          8.3E-11 Ry
     smearing contrib. (-TS)   =       0.01149678 Ry
     internal energy E=F+TS    =    -771.73634269 Ry

     The total energy is F=E-TS. E is the sum of the following terms:
     one-electron contribution =    -362.26491270 Ry
     hartree contribution      =     271.70300253 Ry
     xc contribution           =    -234.61203854 Ry
     ewald contribution        =    -446.56239398 Ry

     convergence has been achieved in 111 iterations

     Forces acting on atoms (cartesian axes, Ry/au):

     atom    1 type  1   force =     0.00000000    0.00000000    0.00000000
     atom    2 type  2   force =     0.00000000    0.00000000    0.00036184
     atom    3 type  2   force =     0.00000000    0.00000000   -0.00036184
     atom    4 type  3   force =     0.00000000    0.00000000    0.00000000
     atom    5 type  3   force =     0.00000000    0.00000000    0.00022801
     atom    6 type  3   force =     0.00000000    0.00000000   -0.00022801
     atom    7 type  4   force =     0.00000000    0.00000000   -0.00030282
     atom    8 type  4   force =     0.00000000    0.00000000    0.00030282
     atom    9 type  4   force =     0.00000000    0.00000000   -0.00038221
     atom   10 type  4   force =     0.00000000    0.00000000    0.00038221
     atom   11 type  4   force =     0.00000000    0.00000000    0.00044338
     atom   12 type  4   force =     0.00000000    0.00000000   -0.00044338
     The non-local contrib.  to forces
     atom    1 type  1   force =     0.00000000    0.00000000    0.00000000
     atom    2 type  2   force =     0.00000000    0.00000000   -0.01311654
     atom    3 type  2   force =     0.00000000    0.00000000    0.01311654
     atom    4 type  3   force =     0.00000000    0.00000000    0.00000000
     atom    5 type  3   force =     0.00000000    0.00000000   -0.03481978
     atom    6 type  3   force =     0.00000000    0.00000000    0.03481978
     atom    7 type  4   force =     0.00000000    0.00000000    0.06431611
     atom    8 type  4   force =     0.00000000    0.00000000   -0.06431611
     atom    9 type  4   force =     0.00000000    0.00000000    0.06400033
     atom   10 type  4   force =     0.00000000    0.00000000   -0.06400033
     atom   11 type  4   force =     0.00000000    0.00000000   -0.66329064
     atom   12 type  4   force =     0.00000000    0.00000000    0.66329064
     The ionic contribution  to forces
     atom    1 type  1   force =    -0.00000000    0.00000000    0.00000000
     atom    2 type  2   force =    -0.00000000    0.00000000  -22.83950775
     atom    3 type  2   force =    -0.00000000    0.00000000   22.83950775
     atom    4 type  3   force =     0.00000000   -0.00000000   -0.00000000
     atom    5 type  3   force =     0.00000000   -0.00000000  -20.02683552
     atom    6 type  3   force =     0.00000000   -0.00000000   20.02683552
     atom    7 type  4   force =    -0.00000000   -0.00000000  -10.04336341
     atom    8 type  4   force =    -0.00000000   -0.00000000   10.04336341
     atom    9 type  4   force =     0.00000000    0.00000000  -10.04183922
     atom   10 type  4   force =     0.00000000    0.00000000   10.04183922
     atom   11 type  4   force =     0.00000000   -0.00000000   -6.11115979
     atom   12 type  4   force =     0.00000000   -0.00000000    6.11115979
     The local contribution  to forces
     atom    1 type  1   force =    -0.00000000    0.00000000    0.00000000
     atom    2 type  2   force =    -0.00000000    0.00000000   22.85592173
     atom    3 type  2   force =    -0.00000000    0.00000000  -22.85592173
     atom    4 type  3   force =    -0.00000000   -0.00000000   -0.00000000
     atom    5 type  3   force =     0.00000000    0.00000000   20.05160461
     atom    6 type  3   force =    -0.00000000    0.00000000  -20.05160461
     atom    7 type  4   force =    -0.00000000    0.00000000    9.97869740
     atom    8 type  4   force =    -0.00000000   -0.00000000   -9.97869740
     atom    9 type  4   force =    -0.00000000    0.00000000    9.97740560
     atom   10 type  4   force =    -0.00000000    0.00000000   -9.97740560
     atom   11 type  4   force =    -0.00000000    0.00000000    6.76938248
     atom   12 type  4   force =     0.00000000    0.00000000   -6.76938248
     The core correction contribution to forces
     atom    1 type  1   force =     0.00000000   -0.00000000   -0.00000000
     atom    2 type  2   force =     0.00000000   -0.00000000   -0.00293576
     atom    3 type  2   force =     0.00000000   -0.00000000    0.00293576
     atom    4 type  3   force =    -0.00000000    0.00000000    0.00000000
     atom    5 type  3   force =     0.00000000   -0.00000000    0.01027860
     atom    6 type  3   force =    -0.00000000   -0.00000000   -0.01027860
     atom    7 type  4   force =    -0.00000000    0.00000000    0.00004707
     atom    8 type  4   force =    -0.00000000    0.00000000   -0.00004707
     atom    9 type  4   force =     0.00000000    0.00000000    0.00005107
     atom   10 type  4   force =    -0.00000000    0.00000000   -0.00005107
     atom   11 type  4   force =    -0.00000000    0.00000000    0.00551119
     atom   12 type  4   force =    -0.00000000    0.00000000   -0.00551119
     The Hubbard contrib.    to forces
     atom    1 type  1   force =     0.00000000    0.00000000    0.00000000
     atom    2 type  2   force =     0.00000000    0.00000000    0.00000000
     atom    3 type  2   force =     0.00000000    0.00000000    0.00000000
     atom    4 type  3   force =     0.00000000    0.00000000    0.00000000
     atom    5 type  3   force =     0.00000000    0.00000000    0.00000000
     atom    6 type  3   force =     0.00000000    0.00000000    0.00000000
     atom    7 type  4   force =     0.00000000    0.00000000    0.00000000
     atom    8 type  4   force =     0.00000000    0.00000000    0.00000000
     atom    9 type  4   force =     0.00000000    0.00000000    0.00000000
     atom   10 type  4   force =     0.00000000    0.00000000    0.00000000
     atom   11 type  4   force =     0.00000000    0.00000000    0.00000000
     atom   12 type  4   force =     0.00000000    0.00000000    0.00000000
     The SCF correction term to forces
     atom    1 type  1   force =    -0.00000000    0.00000000   -0.00000000
     atom    2 type  2   force =    -0.00000000   -0.00000000    0.00000016
     atom    3 type  2   force =     0.00000000    0.00000000   -0.00000016
     atom    4 type  3   force =     0.00000000    0.00000000   -0.00000000
     atom    5 type  3   force =    -0.00000000    0.00000000    0.00000011
     atom    6 type  3   force =    -0.00000000   -0.00000000   -0.00000011
     atom    7 type  4   force =     0.00000000   -0.00000000    0.00000000
     atom    8 type  4   force =     0.00000000    0.00000000   -0.00000000
     atom    9 type  4   force =    -0.00000000   -0.00000000    0.00000001
     atom   10 type  4   force =    -0.00000000    0.00000000   -0.00000001
     atom   11 type  4   force =     0.00000000    0.00000000    0.00000013
     atom   12 type  4   force =     0.00000000   -0.00000000   -0.00000013

     Total force =     0.001111     Total SCF correction =     0.000000

     Computing stress (Cartesian axis) and pressure

          total   stress  (Ry/bohr**3)                   (kbar)     P=        0.31
   0.00000186   0.00000000   0.00000000            0.27        0.00        0.00
   0.00000000   0.00000157   0.00000000            0.00        0.23        0.00
   0.00000000   0.00000000   0.00000283            0.00        0.00        0.42

     kinetic stress (kbar)  19512.23      0.00      0.00
                                0.00  19512.22      0.00
                                0.00      0.00  19576.05

     local   stress (kbar) -24284.89      0.00      0.00
                                0.00 -24282.08      0.00
                                0.00      0.00  22162.32

     nonloc. stress (kbar)   2960.83      0.00      0.00
                                0.00   2960.83      0.00
                                0.00      0.00   3005.94

     hartree stress (kbar)  19191.35     -0.00      0.00
                               -0.00  19190.35     -0.00
                                0.00     -0.00  -2997.01

     exc-cor stress (kbar)   8498.89      0.00      0.00
                                0.00   8498.89      0.00
                                0.00      0.00   8498.89

     corecor stress (kbar) -14610.20     -0.00      0.00
                               -0.00 -14610.20      0.00
                                0.00      0.00 -14626.34

     ewald   stress (kbar) -11267.93     -0.00      0.00
                               -0.00 -11269.78     -0.00
                                0.00     -0.00 -35619.44

     hubbard stress (kbar)      0.00      0.00      0.00
                                0.00      0.00      0.00
                                0.00      0.00      0.00

     DFT-D   stress (kbar)      0.00      0.00      0.00
                                0.00      0.00      0.00
                                0.00      0.00      0.00

     XDM     stress (kbar)      0.00      0.00      0.00
                                0.00      0.00      0.00
                                0.00      0.00      0.00

     dft-nl  stress (kbar)      0.00      0.00      0.00
                                0.00      0.00      0.00
                                0.00      0.00      0.00

     TS-vdW  stress (kbar)      0.00      0.00      0.00
                                0.00      0.00      0.00
                                0.00      0.00      0.00

     MDB     stress (kbar)      0.00      0.00      0.00
                                0.00      0.00      0.00
                                0.00      0.00      0.00

     3D-RISM stress (kbar)      0.00      0.00      0.00
                                0.00      0.00      0.00
                                0.00      0.00      0.00

     Writing all to output data dir ./YBCO.vc-relax/YBCO.vc-relax.save/

     General routines

     Parallel routines

   This run was terminated on:  20:38:44  31Dec2023

   JOB DONE.