     Program PWSCF v.7.2 starts on 31Dec2023 at 17:44: 7

     Waiting for input...
     Reading input from standard input

     Current dimensions of program PWSCF are:
     Max number of different atomic species (ntypx) = 10
     Max number of k-points (npk) =  40000
     Max angular momentum in pseudopotentials (lmaxx) =  4
     file Y.pz-spn-rrkjus_psl.1.0.0.UPF: wavefunction(s)  4S renormalized
     file Ba.pz-spn-rrkjus_psl.1.0.0.UPF: wavefunction(s)  5S 6S renormalized
     file Cu.pz-dn-rrkjus_psl.1.0.0.UPF: wavefunction(s)  3D renormalized

     R & G space division:  proc/nbgrp/npool/nimage =       4
     Subspace diagonalization in iterative solution of the eigenvalue problem:
     a serial algorithm will be used

     Using Slab Decomposition

     bravais-lattice index     =            6
     lattice parameter (alat)  =       7.1036  a.u.
     unit-cell volume          =    1088.3314 (a.u.)^3
     number of atoms/cell      =           13
     number of atomic types    =            4
     number of electrons       =       106.00
     number of Kohn-Sham states=           64
     kinetic-energy cutoff     =      60.0000  Ry
     charge density cutoff     =     540.0000  Ry
     scf convergence threshold =      1.0E-08
     mixing beta               =       0.1000
     number of iterations used =            8  plain     mixing
     Exchange-correlation= LDA
                           (   1   1   0   0   0   0   0)

     celldm(1)=   7.103626  celldm(2)=   1.012958  celldm(3)=   3.036133
     celldm(4)=   0.000000  celldm(5)=   0.000000  celldm(6)=   0.000000

     crystal axes: (cart. coord. in units of alat)
               a(1) = (   1.000000   0.000000   0.000000 )
               a(2) = (   0.000000   1.000000   0.000000 )
               a(3) = (   0.000000   0.000000   3.036133 )

     reciprocal axes: (cart. coord. in units 2 pi/alat)
               b(1) = (  1.000000  0.000000  0.000000 )
               b(2) = (  0.000000  1.000000  0.000000 )
               b(3) = (  0.000000  0.000000  0.329366 )

     PseudoPot. # 1 for Y  read from file:
     ~/q-e/pslibrary/pz/PSEUDOPOTENTIALS/Y.pz-spn-rrkjus_psl.1.0.0.UPF
     MD5 check sum: Not computed, couldn't open file
     Pseudo is Ultrasoft + core correction, Zval = 11.0
     Generated using 'atomic' code by A. Dal Corso  v.7.2
     Using radial grid of 1223 points,  6 beta functions with:
                l(1) =   0
                l(2) =   0
                l(3) =   1
                l(4) =   1
                l(5) =   2
                l(6) =   2
     Q(r) pseudized with 0 coefficients

     PseudoPot. # 2 for Ba read from file:
     ~/q-e/pslibrary/pz/PSEUDOPOTENTIALS/Ba.pz-spn-rrkjus_psl.1.0.0.UPF
     MD5 check sum: Not computed, couldn't open file
     Pseudo is Ultrasoft + core correction, Zval = 10.0
     Generated using 'atomic' code by A. Dal Corso  v.7.2
     Using radial grid of 1251 points,  7 beta functions with:
                l(1) =   0
                l(2) =   0
                l(3) =   0
                l(4) =   1
                l(5) =   1
                l(6) =   2
                l(7) =   2
     Q(r) pseudized with 0 coefficients

     PseudoPot. # 3 for Cu read from file:
     ~/q-e/pslibrary/pz/PSEUDOPOTENTIALS/Cu.pz-dn-rrkjus_psl.1.0.0.UPF
     MD5 check sum: Not computed, couldn't open file
     Pseudo is Ultrasoft + core correction, Zval = 11.0
     Generated using 'atomic' code by A. Dal Corso  v.7.2
     Using radial grid of 1199 points,  6 beta functions with:
                l(1) =   0
                l(2) =   0
                l(3) =   1
                l(4) =   1
                l(5) =   2
                l(6) =   2
     Q(r) pseudized with 0 coefficients

     PseudoPot. # 4 for O  read from file:
     ~/q-e/pslibrary/pz/PSEUDOPOTENTIALS/O.pz-n-rrkjus_psl.1.0.0.UPF
     MD5 check sum: Not computed, couldn't open file
     Pseudo is Ultrasoft + core correction, Zval =  6.0
     Generated using 'atomic' code by A. Dal Corso  v.7.2
     Using radial grid of 1095 points,  4 beta functions with:
                l(1) =   0
                l(2) =   0
                l(3) =   1
                l(4) =   1
     Q(r) pseudized with 0 coefficients

     atomic species   valence    mass     pseudopotential
     Y                11.00    88.90584     Y ( 1.00)
     Ba               10.00   137.32700     Ba( 1.00)
     Cu               11.00    63.54600     Cu( 1.00)
     O                 6.00    15.99900     O ( 1.00)

      8 Sym. Ops., with inversion, found

                                    s                        frac. trans.

      isym =  1     identity

 cryst.   s( 1) = (     1          0          0      )
                  (     0          1          0      )
                  (     0          0          1      )

 cart.    s( 1) = (  1.0000000  0.0000000  0.0000000 )
                  (  0.0000000  1.0000000  0.0000000 )
                  (  0.0000000  0.0000000  1.0000000 )

      isym =  2     180 deg rotation - cart. axis [0,0,1]

[...]

      isym =  4     180 deg rotation - cart. axis [1,0,0]

[...]

      isym =  5     inversion

[...]

      isym =  6     inv. 180 deg rotation - cart. axis [0,0,1]

[...]

      isym =  8     inv. 180 deg rotation - cart. axis [1,0,0]

 cryst.   s( 8) = (    -1          0          0      )
                  (     0          1          0      )
                  (     0          0          1      )

 cart.    s( 8) = ( -1.0000000  0.0000000  0.0000000 )
                  (  0.0000000  1.0000000  0.0000000 )
                  (  0.0000000  0.0000000  1.0000000 )

     point group D_2h (mmm)
     there are  8 classes
     the character table:

       E     C2    C2'   C2''  i     s_v   s_v'  s_v''
A_g    1.00  1.00  1.00  1.00  1.00  1.00  1.00  1.00
B_1g   1.00  1.00 -1.00 -1.00  1.00  1.00 -1.00 -1.00
B_2g   1.00 -1.00  1.00 -1.00  1.00 -1.00  1.00 -1.00
B_3g   1.00 -1.00 -1.00  1.00  1.00 -1.00 -1.00  1.00
A_u    1.00  1.00  1.00  1.00 -1.00 -1.00 -1.00 -1.00
B_1u   1.00  1.00 -1.00 -1.00 -1.00 -1.00  1.00  1.00
B_2u   1.00 -1.00  1.00 -1.00 -1.00  1.00 -1.00  1.00
B_3u   1.00 -1.00 -1.00  1.00 -1.00  1.00  1.00 -1.00

     the symmetry operations in each class and the name of the first element:

     E        1
          identity
     C2       2
          180 deg rotation - cart. axis [0,0,1]
     C2'      4
          180 deg rotation - cart. axis [1,0,0]
     C2''     3
          180 deg rotation - cart. axis [0,1,0]
     i        5
          inversion
     s_v      6
          inv. 180 deg rotation - cart. axis [0,0,1]
     s_v'     8
          inv. 180 deg rotation - cart. axis [1,0,0]
     s_v''    7
          inv. 180 deg rotation - cart. axis [0,1,0]

   Cartesian axes

     site n.     atom                  positions (alat units)
         1        Y      tau(   1) = (   0.5000000   0.5000000   1.5180667  )
         2        Ba     tau(   2) = (   0.5000000   0.5000000   0.5513414  )
         3        Ba     tau(   3) = (   0.5000000   0.5000000   2.4847919  )
         4        Cu     tau(   4) = (   0.0000000   0.0000000   0.0000000  )
         5        Cu     tau(   5) = (   0.0000000   0.0000000   1.0679987  )
         6        Cu     tau(   6) = (   0.0000000   0.0000000   1.9681346  )
         7        O      tau(   7) = (   0.5000000   0.0000000   1.1440566  )
         8        O      tau(   8) = (   0.5000000   0.0000000   1.8920768  )
         9        O      tau(   9) = (   0.0000000   0.5000000   1.1430559  )
        10        O      tau(  10) = (   0.0000000   0.5000000   1.8930775  )
        11        O      tau(  11) = (   0.0000000   0.0000000   0.4880253  )
        12        O      tau(  12) = (   0.0000000   0.0000000   2.5481081  )
        13        O      tau(  13) = (   0.0000000   0.5000000   0.0000000  )

   Crystallographic axes

     site n.     atom                  positions (cryst. coord.)
         1        Y      tau(   1) = (  0.5000000  0.5000000  0.5000000  )
         2        Ba     tau(   2) = (  0.5000000  0.5000000  0.1815933  )
         3        Ba     tau(   3) = (  0.5000000  0.5000000  0.8184067  )
         4        Cu     tau(   4) = (  0.0000000  0.0000000  0.0000000  )
         5        Cu     tau(   5) = (  0.0000000  0.0000000  0.3517628  )
         6        Cu     tau(   6) = (  0.0000000  0.0000000  0.6482372  )
         7        O      tau(   7) = (  0.5000000  0.0000000  0.3768137  )
         8        O      tau(   8) = (  0.5000000  0.0000000  0.6231863  )
         9        O      tau(   9) = (  0.0000000  0.5000000  0.3764841  )
        10        O      tau(  10) = (  0.0000000  0.5000000  0.6235159  )
        11        O      tau(  11) = (  0.0000000  0.0000000  0.1607391  )
        12        O      tau(  12) = (  0.0000000  0.0000000  0.8392609  )
        13        O      tau(  13) = (  0.0000000  0.5000000  0.0000000  )

     number of k points=    27  Methfessel-Paxton smearing, width (Ry)=  0.0100
                       cart. coord. in units 2pi/alat
        k(    1) = (   0.0000000   0.0000000   0.0000000), wk =   0.0312500
        k(    2) = (   0.0000000   0.0000000   0.0823416), wk =   0.0625000
        k(    3) = (   0.0000000   0.0000000  -0.1646831), wk =   0.0312500
        k(    4) = (   0.0000000   0.2500000   0.0000000), wk =   0.0625000
        k(    5) = (   0.0000000   0.2500000   0.0823416), wk =   0.1250000
        k(    6) = (   0.0000000   0.2500000  -0.1646831), wk =   0.0625000
        k(    7) = (   0.0000000  -0.5000000   0.0000000), wk =   0.0312500
        k(    8) = (   0.0000000  -0.5000000   0.0823416), wk =   0.0625000
        k(    9) = (   0.0000000  -0.5000000  -0.1646831), wk =   0.0312500
        k(   10) = (   0.2500000   0.2500000   0.0000000), wk =   0.1250000
        k(   11) = (   0.2500000   0.2500000   0.0823416), wk =   0.2500000
        k(   12) = (   0.2500000   0.2500000  -0.1646831), wk =   0.1250000
        k(   13) = (   0.2500000  -0.5000000   0.0000000), wk =   0.0625000
        k(   14) = (   0.2500000  -0.5000000   0.0823416), wk =   0.1250000
        k(   15) = (   0.2500000  -0.5000000  -0.1646831), wk =   0.0625000
        k(   16) = (  -0.5000000  -0.5000000   0.0000000), wk =   0.0312500
        k(   17) = (  -0.5000000  -0.5000000   0.0823416), wk =   0.0625000
        k(   18) = (  -0.5000000  -0.5000000  -0.1646831), wk =   0.0312500
        k(   19) = (   0.2500000   0.0000000   0.0000000), wk =   0.0625000
        k(   20) = (   0.2500000   0.0000000  -0.0823416), wk =   0.1250000
        k(   21) = (   0.2500000   0.0000000   0.1646831), wk =   0.0625000
        k(   22) = (  -0.5000000   0.0000000   0.0000000), wk =   0.0312500
        k(   23) = (  -0.5000000   0.0000000  -0.0823416), wk =   0.0625000
        k(   24) = (  -0.5000000   0.0000000   0.1646831), wk =   0.0312500
        k(   25) = (  -0.5000000   0.2500000   0.0000000), wk =   0.0625000
        k(   26) = (  -0.5000000   0.2500000  -0.0823416), wk =   0.1250000
        k(   27) = (  -0.5000000   0.2500000   0.1646831), wk =   0.0625000

                       cryst. coord.
        k(    1) = (   0.0000000   0.0000000   0.0000000), wk =   0.0312500
        k(    2) = (   0.0000000   0.0000000   0.2500000), wk =   0.0625000
        k(    3) = (   0.0000000   0.0000000  -0.5000000), wk =   0.0312500
        k(    4) = (   0.0000000   0.2500000   0.0000000), wk =   0.0625000
        k(    5) = (   0.0000000   0.2500000   0.2500000), wk =   0.1250000
        k(    6) = (   0.0000000   0.2500000  -0.5000000), wk =   0.0625000
        k(    7) = (   0.0000000  -0.5000000   0.0000000), wk =   0.0312500
        k(    8) = (   0.0000000  -0.5000000   0.2500000), wk =   0.0625000
        k(    9) = (   0.0000000  -0.5000000  -0.5000000), wk =   0.0312500
        k(   10) = (   0.2500000   0.2500000   0.0000000), wk =   0.1250000
        k(   11) = (   0.2500000   0.2500000   0.2500000), wk =   0.2500000
        k(   12) = (   0.2500000   0.2500000  -0.5000000), wk =   0.1250000
        k(   13) = (   0.2500000  -0.5000000   0.0000000), wk =   0.0625000
        k(   14) = (   0.2500000  -0.5000000   0.2500000), wk =   0.1250000
        k(   15) = (   0.2500000  -0.5000000  -0.5000000), wk =   0.0625000
        k(   16) = (  -0.5000000  -0.5000000   0.0000000), wk =   0.0312500
        k(   17) = (  -0.5000000  -0.5000000   0.2500000), wk =   0.0625000
        k(   18) = (  -0.5000000  -0.5000000  -0.5000000), wk =   0.0312500
        k(   19) = (   0.2500000   0.0000000   0.0000000), wk =   0.0625000
        k(   20) = (   0.2500000   0.0000000  -0.2500000), wk =   0.1250000
        k(   21) = (   0.2500000   0.0000000   0.5000000), wk =   0.0625000
        k(   22) = (  -0.5000000   0.0000000   0.0000000), wk =   0.0312500
        k(   23) = (  -0.5000000   0.0000000  -0.2500000), wk =   0.0625000
        k(   24) = (  -0.5000000   0.0000000   0.5000000), wk =   0.0312500
        k(   25) = (  -0.5000000   0.2500000   0.0000000), wk =   0.0625000
        k(   26) = (  -0.5000000   0.2500000  -0.2500000), wk =   0.1250000
        k(   27) = (  -0.5000000   0.2500000   0.5000000), wk =   0.0625000

     Initial potential from superposition of free atoms

     starting charge     105.9671, renormalised to     106.0000
     Starting wfcs are   78 randomized atomic wfcs

     Self-consistent Calculation

     iteration #  1     ecut=    60.00 Ry     beta= 0.10
     Davidson diagonalization with overlap

     ethr =  1.00E-02,  avg # of iterations =  6.6

     total energy              =    -804.05741553 Ry
     estimated scf accuracy    <       5.41576505 Ry

[...]

     c_bands:  2 eigenvalues not converged
     c_bands:  1 eigenvalues not converged
     c_bands:  1 eigenvalues not converged
     c_bands:  1 eigenvalues not converged
     c_bands:  1 eigenvalues not converged
     ethr =  4.39E-06,  avg # of iterations = 11.3

[...]

     total energy              =    -804.06946012 Ry
     estimated scf accuracy    <       0.00000002 Ry

     iteration # 37     ecut=    60.00 Ry     beta= 0.10
     Davidson diagonalization with overlap

     ethr =  1.46E-11,  avg # of iterations =  2.0

     End of self-consistent calculation

          k = 0.0000 0.0000 0.0000 (  8549 PWs)   bands (ev):

   -29.9865 -14.7817 -14.7452 -10.8717 -10.0860 -10.0815  -7.9177  -6.6852
    -6.6285  -6.5442  -6.2413  -5.6005  -5.5186   0.0106   0.0423   0.3020
     0.3367   0.3549   0.4186   5.1923   5.1938   5.4348   5.4937   5.5695
     5.5857   6.4732   6.8286   6.8513   7.1397   7.3473   7.4889   7.6377
     7.6802   7.7824   7.8452   7.9097   7.9117   7.9258   8.0182   8.0901
     8.4497   8.7365   8.7703   8.7729   8.7848   9.0314   9.0587   9.0913
     9.5355   9.6967  10.0997  10.1685  10.1706  10.3442  10.3570  13.3246
    13.8908  14.8164  14.8917  15.9954  16.0075  16.8324  17.0562  17.4606

     occupation numbers
     1.0000   1.0000   1.0000   1.0000   1.0000   1.0000   1.0000   1.0000
     1.0000   1.0000   1.0000   1.0000   1.0000   1.0000   1.0000   1.0000
     1.0000   1.0000   1.0000   1.0000   1.0000   1.0000   1.0000   1.0000
     1.0000   1.0000   1.0000   1.0000   1.0000   1.0000   1.0000   1.0000
     1.0000   1.0000   1.0000   1.0000   1.0000   1.0000   1.0000   1.0000
     1.0000   1.0000   1.0000   1.0000   1.0000   1.0000   1.0000   1.0000
     1.0000   1.0000   1.0000   1.0000   1.0000   1.0121   1.0157  -0.0000
    -0.0000  -0.0000  -0.0000  -0.0000  -0.0000  -0.0000  -0.0000  -0.0000

[...]

          k =-0.5000-0.5000 0.0000 (  8584 PWs)   bands (ev):

[...]

          k = 0.2500 0.0000 0.1647 (  8528 PWs)   bands (ev):

[...]

          k =-0.5000 0.2500 0.1647 (  8564 PWs)   bands (ev):

   -29.9562 -14.5228 -14.4991 -10.8579 -10.4908 -10.3608  -7.0280  -6.6738
    -6.5134  -6.5073  -6.2816  -5.8780  -5.6442  -0.2688  -0.1463  -0.1276
    -0.0939   0.0739   0.1475   3.5985   4.0571   5.0573   5.1658   5.3448
     5.3512   5.4862   5.5965   6.2036   6.2102   6.7615   6.7867   6.9986
     7.1887   7.2166   7.2175   8.1866   8.2838   8.3552   8.5929   8.7540
     8.7855   8.9756   9.1418   9.2112   9.3052   9.5072   9.5262   9.7226
     9.7756   9.8795   9.9869  10.0766  11.5987  11.6985  11.9105  13.9719
    14.7292  15.8192  17.0504  17.0613  17.4039  17.6116  17.8811  18.5352

     occupation numbers
     1.0000   1.0000   1.0000   1.0000   1.0000   1.0000   1.0000   1.0000
     1.0000   1.0000   1.0000   1.0000   1.0000   1.0000   1.0000   1.0000
     1.0000   1.0000   1.0000   1.0000   1.0000   1.0000   1.0000   1.0000
     1.0000   1.0000   1.0000   1.0000   1.0000   1.0000   1.0000   1.0000
     1.0000   1.0000   1.0000   1.0000   1.0000   1.0000   1.0000   1.0000
     1.0000   1.0000   1.0000   1.0000   1.0000   1.0000   1.0000   1.0000
     1.0000   1.0000   1.0000   1.0000  -0.0000  -0.0000  -0.0000  -0.0000
    -0.0000  -0.0000  -0.0000  -0.0000  -0.0000  -0.0000  -0.0000  -0.0000

     the Fermi energy is    10.5977 ev

!    total energy              =    -804.06946013 Ry
     estimated scf accuracy    <          3.1E-10 Ry
     smearing contrib. (-TS)   =      -0.00006830 Ry
     internal energy E=F+TS    =    -804.06939184 Ry

     The total energy is F=E-TS. E is the sum of the following terms:
     one-electron contribution =    -236.74135959 Ry
     hartree contribution      =     216.98275325 Ry
     xc contribution           =    -242.02034433 Ry
     ewald contribution        =    -542.29044117 Ry

     convergence has been achieved in  37 iterations

     Writing all to output data dir ./YBCO7/YBCO7.save/

     General routines

     Parallel routines

   This run was terminated on:  17:46:55  31Dec2023

   JOB DONE.