     Program PWSCF v.7.2 starts on 26Nov2023 at 12:23:23

     Waiting for input...
     Reading input from standard input

     Current dimensions of program PWSCF are:
     Max number of different atomic species (ntypx) = 10
     Max number of k-points (npk) =  40000
     Max angular momentum in pseudopotentials (lmaxx) =  4

     R & G space division:  proc/nbgrp/npool/nimage =       4
     Subspace diagonalization in iterative solution of the eigenvalue problem:
     a serial algorithm will be used

     Using Slab Decomposition

     bravais-lattice index     =            4
     lattice parameter (alat)  =       6.0178  a.u.
     unit-cell volume          =     879.3280 (a.u.)^3
     number of atoms/cell      =            6
     number of atomic types    =            2
     number of electrons       =        52.00
     number of Kohn-Sham states=           31
     kinetic-energy cutoff     =      35.0000  Ry
     charge density cutoff     =     280.0000  Ry
     scf convergence threshold =      1.0E-08
     mixing beta               =       0.7000
     number of iterations used =            8  plain     mixing
     Exchange-correlation=  SLA  PW   PBX  PBC
                           (   1   4   3   4   0   0   0)

     celldm(1)=   6.017799  celldm(2)=   0.000000  celldm(3)=   4.659156
     celldm(4)=   0.000000  celldm(5)=   0.000000  celldm(6)=   0.000000

     crystal axes: (cart. coord. in units of alat)
               a(1) = (   1.000000   0.000000   0.000000 )
               a(2) = (  -0.500000   0.866025   0.000000 )
               a(3) = (   0.000000   0.000000   4.659156 )

     reciprocal axes: (cart. coord. in units 2 pi/alat)
               b(1) = (  1.000000  0.577350  0.000000 )
               b(2) = (  0.000000  1.154701  0.000000 )
               b(3) = (  0.000000  0.000000  0.214631 )

     PseudoPot. # 1 for Mo read from file:
     ./Mo_ONCV_PBE-1.0.oncvpsp.upf
     MD5 check sum: 1b5d28e075c9ccadda658a603575cd1f
     Pseudo is Norm-conserving, Zval = 14.0
     Generated using ONCVPSP code by D. R. Hamann
     Using radial grid of 1526 points,  6 beta functions with:
                l(1) =   0
                l(2) =   0
                l(3) =   1
                l(4) =   1
                l(5) =   2
                l(6) =   2

     PseudoPot. # 2 for S  read from file:
     ./s_pbe_v1.4.uspp.F.UPF
     MD5 check sum: 88d86576ff6df21479756cfb9bdac1df
     Pseudo is Ultrasoft + core correction, Zval =  6.0
     Generated by new atomic code, or converted to UPF format
     Using radial grid of  907 points,  6 beta functions with:
                l(1) =   0
                l(2) =   0
                l(3) =   1
                l(4) =   1
                l(5) =   2
                l(6) =   2
     Q(r) pseudized with  8 coefficients,  rinner =    1.300   1.300   1.300
                                                       1.300   1.300

     atomic species   valence    mass     pseudopotential
     Mo               14.00    95.95000     Mo( 1.00)
     S                 6.00    32.06500     S ( 1.00)

     24 Sym. Ops., with inversion, found (12 have fractional translation)

   Cartesian axes

     site n.     atom                  positions (alat units)
         1        S      tau(   1) = (  -0.0000005   0.5773506   0.6750597  )
         2        S      tau(   2) = (   0.5000005   0.2886748   3.0046378  )
         3        S      tau(   3) = (  -0.0000005   0.5773506   1.6545185  )
         4        S      tau(   4) = (   0.5000005   0.2886748   3.9840967  )
         5        Mo     tau(   5) = (   0.5000005   0.2886748   1.1647891  )
         6        Mo     tau(   6) = (  -0.0000005   0.5773506   3.4943673  )

     number of k points=    57  Methfessel-Paxton smearing, width (Ry)=  0.0050
                       cart. coord. in units 2pi/alat
        k(    1) = (   0.0000000   0.0000000   0.0000000), wk =   0.0034722
        k(    2) = (   0.0000000   0.0000000   0.0536578), wk =   0.0069444
        k(    3) = (   0.0000000   0.0000000  -0.1073156), wk =   0.0034722
        k(    4) = (   0.0000000   0.0962250   0.0000000), wk =   0.0208333
        k(    5) = (   0.0000000   0.0962250   0.0536578), wk =   0.0416667
        k(    6) = (   0.0000000   0.0962250  -0.1073156), wk =   0.0208333
        k(    7) = (   0.0000000   0.1924501   0.0000000), wk =   0.0208333
        k(    8) = (   0.0000000   0.1924501   0.0536578), wk =   0.0416667
        k(    9) = (   0.0000000   0.1924501  -0.1073156), wk =   0.0208333
        k(   10) = (   0.0000000   0.2886751   0.0000000), wk =   0.0208333
        k(   11) = (   0.0000000   0.2886751   0.0536578), wk =   0.0416667
        k(   12) = (   0.0000000   0.2886751  -0.1073156), wk =   0.0208333
        k(   13) = (   0.0000000   0.3849002   0.0000000), wk =   0.0208333
        k(   14) = (   0.0000000   0.3849002   0.0536578), wk =   0.0416667
        k(   15) = (   0.0000000   0.3849002  -0.1073156), wk =   0.0208333
        k(   16) = (   0.0000000   0.4811252   0.0000000), wk =   0.0208333
        k(   17) = (   0.0000000   0.4811252   0.0536578), wk =   0.0416667
        k(   18) = (   0.0000000   0.4811252  -0.1073156), wk =   0.0208333
        k(   19) = (   0.0000000  -0.5773503   0.0000000), wk =   0.0104167
        k(   20) = (   0.0000000  -0.5773503   0.0536578), wk =   0.0208333
        k(   21) = (   0.0000000  -0.5773503  -0.1073156), wk =   0.0104167
        k(   22) = (   0.0833333   0.1443376   0.0000000), wk =   0.0208333
        k(   23) = (   0.0833333   0.1443376   0.0536578), wk =   0.0416667
        k(   24) = (   0.0833333   0.1443376  -0.1073156), wk =   0.0208333
        k(   25) = (   0.0833333   0.2405626   0.0000000), wk =   0.0416667
        k(   26) = (   0.0833333   0.2405626   0.0536578), wk =   0.0833333
        k(   27) = (   0.0833333   0.2405626  -0.1073156), wk =   0.0416667
        k(   28) = (   0.0833333   0.3367877   0.0000000), wk =   0.0416667
        k(   29) = (   0.0833333   0.3367877   0.0536578), wk =   0.0833333
        k(   30) = (   0.0833333   0.3367877  -0.1073156), wk =   0.0416667
        k(   31) = (   0.0833333   0.4330127   0.0000000), wk =   0.0416667
        k(   32) = (   0.0833333   0.4330127   0.0536578), wk =   0.0833333
        k(   33) = (   0.0833333   0.4330127  -0.1073156), wk =   0.0416667
        k(   34) = (   0.0833333   0.5292377   0.0000000), wk =   0.0416667
        k(   35) = (   0.0833333   0.5292377   0.0536578), wk =   0.0833333
        k(   36) = (   0.0833333   0.5292377  -0.1073156), wk =   0.0416667
        k(   37) = (   0.1666667   0.2886751   0.0000000), wk =   0.0208333
        k(   38) = (   0.1666667   0.2886751   0.0536578), wk =   0.0416667
        k(   39) = (   0.1666667   0.2886751  -0.1073156), wk =   0.0208333
        k(   40) = (   0.1666667   0.3849002   0.0000000), wk =   0.0416667
        k(   41) = (   0.1666667   0.3849002   0.0536578), wk =   0.0833333
        k(   42) = (   0.1666667   0.3849002  -0.1073156), wk =   0.0416667
        k(   43) = (   0.1666667   0.4811252   0.0000000), wk =   0.0416667
        k(   44) = (   0.1666667   0.4811252   0.0536578), wk =   0.0833333
        k(   45) = (   0.1666667   0.4811252  -0.1073156), wk =   0.0416667
        k(   46) = (   0.1666667   0.5773503   0.0000000), wk =   0.0208333
        k(   47) = (   0.1666667   0.5773503   0.0536578), wk =   0.0416667
        k(   48) = (   0.1666667   0.5773503  -0.1073156), wk =   0.0208333
        k(   49) = (   0.2500000   0.4330127   0.0000000), wk =   0.0208333
        k(   50) = (   0.2500000   0.4330127   0.0536578), wk =   0.0416667
        k(   51) = (   0.2500000   0.4330127  -0.1073156), wk =   0.0208333
        k(   52) = (   0.2500000   0.5292377   0.0000000), wk =   0.0416667
        k(   53) = (   0.2500000   0.5292377   0.0536578), wk =   0.0833333
        k(   54) = (   0.2500000   0.5292377  -0.1073156), wk =   0.0416667
        k(   55) = (   0.3333333   0.5773503   0.0000000), wk =   0.0069444
        k(   56) = (   0.3333333   0.5773503   0.0536578), wk =   0.0138889
        k(   57) = (   0.3333333   0.5773503  -0.1073156), wk =   0.0069444

     Initial potential from superposition of free atoms

     starting charge      51.9979, renormalised to      52.0000
     Starting wfcs are   36 randomized atomic wfcs

     Self-consistent Calculation

     iteration #  1     ecut=    35.00 Ry     beta= 0.70
     Davidson diagonalization with overlap
     ethr =  1.00E-02,  avg # of iterations =  2.1

     Threshold (ethr) on eigenvalues was too large:
     Diagonalizing with lowered threshold

     Davidson diagonalization with overlap
     ethr =  3.24E-04,  avg # of iterations =  2.1

     total energy              =    -370.99688604 Ry
     estimated scf accuracy    <       0.21580967 Ry

[...]

     iteration #  5     ecut=    35.00 Ry     beta= 0.70
     Davidson diagonalization with overlap
     c_bands:  1 eigenvalues not converged
     ethr =  3.19E-06,  avg # of iterations =  7.8

[...]

     total energy              =    -371.07519927 Ry
     estimated scf accuracy    <       0.00000001 Ry

     iteration # 10     ecut=    35.00 Ry     beta= 0.70
     Davidson diagonalization with overlap
     ethr =  2.18E-11,  avg # of iterations =  4.4

     End of self-consistent calculation

          k = 0.0000 0.0000 0.0000 (  3089 PWs)   bands (ev):

   -53.4623 -53.4623 -27.6049 -27.6049 -27.4053 -27.4053 -27.4053 -27.4053
    -6.6899  -6.6709  -5.3834  -5.3483   1.7165   1.8794   4.7757   4.7757
     4.7762   4.7762   5.3771   5.8897   5.8898   5.8917   5.8917   5.9484
     7.2354   7.6234  10.1704  10.1704  10.1722  10.1722  10.4175

[...]

          k = 0.3333 0.5774-0.1073 (  3048 PWs)   bands (ev):

   -53.4204 -53.4204 -27.6839 -27.6838 -27.6408 -27.6408 -27.5209 -27.5209
    -4.5594  -4.5594  -4.4771  -4.4771   2.0050   2.0050   2.8299   2.8299
     3.3473   3.3473   3.8477   3.8477   4.5476   4.5476   5.2656   5.2657
     7.3844   7.3845   9.0632   9.0632  10.4792  10.4792  10.9401

     the Fermi energy is     8.3446 ev

!    total energy              =    -371.07519928 Ry
     estimated scf accuracy    <          4.1E-09 Ry
     smearing contrib. (-TS)   =       0.00000000 Ry
     internal energy E=F+TS    =    -371.07519928 Ry

     The total energy is F=E-TS. E is the sum of the following terms:
     one-electron contribution =    -317.47071726 Ry
     hartree contribution      =     174.65767106 Ry
     xc contribution           =     -65.12865856 Ry
     ewald contribution        =    -163.13349451 Ry

     convergence has been achieved in  10 iterations

     Forces acting on atoms (cartesian axes, Ry/au):

     atom    1 type  2   force =     0.00000000    0.00000000   -0.00252963
     atom    2 type  2   force =     0.00000000   -0.00000000   -0.00252963
     atom    3 type  2   force =     0.00000000   -0.00000000    0.00252963
     atom    4 type  2   force =    -0.00000000   -0.00000000    0.00252963
     atom    5 type  1   force =     0.00000000   -0.00000000    0.00000000
     atom    6 type  1   force =    -0.00000000   -0.00000000    0.00000000

     Total force =     0.005059     Total SCF correction =     0.000111

     Computing stress (Cartesian axis) and pressure

          total   stress  (Ry/bohr**3)                   (kbar)     P=        2.15
   0.00000769  -0.00000000   0.00000000            1.13       -0.00        0.00
  -0.00000000   0.00000769   0.00000000           -0.00        1.13        0.00
   0.00000000   0.00000000   0.00002844            0.00        0.00        4.18

     Writing all to output data dir ./NovdW/m-p/MoS2.NovdW.m-p.save/

     General routines

     Parallel routines

   This run was terminated on:  12:23:45  26Nov2023

   JOB DONE.