     Program PWSCF v.7.2 starts on 23Dec2023 at 22:12:41

     Waiting for input...
     Reading input from standard input
Warning: card &CELL ignored
Warning: card / ignored

     Current dimensions of program PWSCF are:
     Max number of different atomic species (ntypx) = 10
     Max number of k-points (npk) =  40000
     Max angular momentum in pseudopotentials (lmaxx) =  4
     file Ba.pbe-spn-kjpaw_psl.1.0.0.UPF: wavefunction(s)  5S 6S renormalized
     file Cu.paw.z_11.ld1.psl.v1.0.0-low.upf: wavefunction(s)  4S 3D renormalized
     file Cu.paw.z_11.ld1.psl.v1.0.0-low.upf: wavefunction(s)  4S 3D renormalized
     file Cu.paw.z_11.ld1.psl.v1.0.0-low.upf: wavefunction(s)  4S 3D renormalized
     file O.pbe-n-kjpaw_psl.0.1.UPF: wavefunction(s)  2P renormalized

     R & G space division:  proc/nbgrp/npool/nimage =       4
     Subspace diagonalization in iterative solution of the eigenvalue problem:
     a serial algorithm will be used

     Using Slab Decomposition

     bravais-lattice index     =            8
     lattice parameter (alat)  =       7.3125  a.u.
     unit-cell volume          =    1210.7086 (a.u.)^3
     number of atoms/cell      =           13
     number of atomic types    =            6
     number of electrons       =       106.00
     number of Kohn-Sham states=           64
     kinetic-energy cutoff     =      90.0000  Ry
     charge density cutoff     =     720.0000  Ry
     scf convergence threshold =      1.0E-09
     mixing beta               =       0.3000
     number of iterations used =            8  plain     mixing
     Exchange-correlation= SLA  PW   PBX  PBC
                           (   1   4   3   4   0   0   0)
     Hubbard projectors: ortho-atomic
     Hubbard parameters of DFT+U (Dudarev formulation) in eV:
     U(Cu1-3d) =  2.5000
     U(Cu2-3d) =  2.5000

     Internal variables: lda_plus_u = T, lda_plus_u_kind = 0

     celldm(1)=   7.312545  celldm(2)=   1.014100  celldm(3)=   3.053186
     celldm(4)=   0.000000  celldm(5)=   0.000000  celldm(6)=   0.000000

     crystal axes: (cart. coord. in units of alat)
               a(1) = (   1.000000   0.000000   0.000000 )
               a(2) = (   0.000000   1.014100   0.000000 )
               a(3) = (   0.000000   0.000000   3.053186 )

     reciprocal axes: (cart. coord. in units 2 pi/alat)
               b(1) = (  1.000000  0.000000  0.000000 )
               b(2) = (  0.000000  0.986096  0.000000 )
               b(3) = (  0.000000  0.000000  0.327527 )

     PseudoPot. # 1 for Y  read from file:
     ~/q-e/pseudo/Y_pbe_v1.uspp.F.UPF
     MD5 check sum: Not computed, couldn't open file
     Pseudo is Ultrasoft + core correction, Zval = 11.0
     Generated by new atomic code, or converted to UPF format
     Using radial grid of  885 points,  6 beta functions with:
                l(1) =   0
                l(2) =   0
                l(3) =   1
                l(4) =   1
                l(5) =   2
                l(6) =   2
     Q(r) pseudized with  6 coefficients,  rinner =    1.200   1.200   1.200
                                                       1.200   1.200

     PseudoPot. # 2 for Ba read from file:
     ~/q-e/pseudo/Ba.pbe-spn-kjpaw_psl.1.0.0.UPF
     MD5 check sum: Not computed, couldn't open file
     Pseudo is Projector augmented-wave + core cor, Zval = 10.0
     Generated using "atomic" code by A. Dal Corso  v.5.1
     Shape of augmentation charge: PSQ
     Using radial grid of 1251 points,  7 beta functions with:
                l(1) =   0
                l(2) =   0
                l(3) =   0
                l(4) =   1
                l(5) =   1
                l(6) =   2
                l(7) =   2
     Q(r) pseudized with 0 coefficients

     PseudoPot. # 3 for Cu read from file:
     ~/q-e/pseudo/Cu.paw.z_11.ld1.psl.v1.0.0-low.upf
     MD5 check sum: Not computed, couldn't open file
     Pseudo is Projector augmented-wave + core cor, Zval = 11.0
     Generated using &quot;atomic&quot; code by A. Dal Corso  v.6.3MaX
     Shape of augmentation charge: PSQ
     Using radial grid of 1199 points,  6 beta functions with:
                l(1) =   0
                l(2) =   0
                l(3) =   1
                l(4) =   1
                l(5) =   2
                l(6) =   2
     Q(r) pseudized with 0 coefficients

[...]

     PseudoPot. # 5 for Cu read from file:
     ~/q-e/pseudo/Cu.paw.z_11.ld1.psl.v1.0.0-low.upf
     MD5 check sum: Not computed, couldn't open file
     Pseudo is Projector augmented-wave + core cor, Zval = 11.0
     Generated using &quot;atomic&quot; code by A. Dal Corso  v.6.3MaX
     Shape of augmentation charge: PSQ
     Using radial grid of 1199 points,  6 beta functions with:
                l(1) =   0
                l(2) =   0
                l(3) =   1
                l(4) =   1
                l(5) =   2
                l(6) =   2
     Q(r) pseudized with 0 coefficients

     PseudoPot. # 6 for O  read from file:
     ~/q-e/pseudo/O.pbe-n-kjpaw_psl.0.1.UPF
     MD5 check sum: Not computed, couldn't open file
     Pseudo is Projector augmented-wave + core cor, Zval =  6.0
     Generated using "atomic" code by A. Dal Corso  v.5.0.99 svn rev. 10869
     Shape of augmentation charge: BESSEL
     Using radial grid of 1095 points,  4 beta functions with:
                l(1) =   0
                l(2) =   0
                l(3) =   1
                l(4) =   1
     Q(r) pseudized with 0 coefficients

     atomic species   valence    mass     pseudopotential
     Y                11.00    88.90584     Y ( 1.00)
     Ba               10.00   137.32700     Ba( 1.00)
     Cu               11.00    63.54600     Cu( 1.00)
     Cu1              11.00    63.54600     Cu( 1.00)
     Cu2              11.00    63.54600     Cu( 1.00)
     O                 6.00    15.99900     O ( 1.00)

     Starting magnetic structure
     atomic species   magnetization
     Y               0.000
     Ba              0.000
     Cu              0.000
     Cu1             0.500
     Cu2            -0.500
     O               0.000

      4 Sym. Ops. (no inversion) found

   Cartesian axes

     site n.     atom                  positions (alat units)
         1        Y      tau(   1) = (   0.5000000   0.5070498   1.5265948  )
         2        Ba     tau(   2) = (   0.5000000   0.5070498   0.5779740  )
         3        Ba     tau(   3) = (   0.5000000   0.5070498   2.4752116  )
         4        Cu     tau(   4) = (   0.0000000   0.0000000  -0.0000023  )
         5        Cu1    tau(   5) = (   0.0000000   0.0000000   1.1287525  )
         6        Cu2    tau(   6) = (   0.0000000   0.0000000   1.9244373  )
         7        O      tau(   7) = (   0.5000000   0.0000000   1.1570864  )
         8        O      tau(   8) = (   0.5000000   0.0000000   1.8961039  )
         9        O      tau(   9) = (   0.0000000   0.5070498   1.1554882  )
        10        O      tau(  10) = (   0.0000000   0.5070498   1.8977009  )
        11        O      tau(  11) = (   0.0000000   0.5070498  -0.0000029  )
        12        O      tau(  12) = (   0.0000000   0.0000000   0.4762009  )
        13        O      tau(  13) = (   0.0000000   0.0000000   2.5769801  )

     number of k points=    27  Methfessel-Paxton smearing, width (Ry)=  0.0300
                       cart. coord. in units 2pi/alat
        k(    1) = (   0.0000000   0.0000000   0.0000000), wk =   0.0156250
        k(    2) = (   0.0000000   0.0000000   0.0818817), wk =   0.0312500
        k(    3) = (   0.0000000   0.0000000  -0.1637633), wk =   0.0156250
        k(    4) = (   0.0000000   0.2465241   0.0000000), wk =   0.0312500
        k(    5) = (   0.0000000   0.2465241   0.0818817), wk =   0.0625000
        k(    6) = (   0.0000000   0.2465241  -0.1637633), wk =   0.0312500
        k(    7) = (   0.0000000  -0.4930482   0.0000000), wk =   0.0156250
        k(    8) = (   0.0000000  -0.4930482   0.0818817), wk =   0.0312500
        k(    9) = (   0.0000000  -0.4930482  -0.1637633), wk =   0.0156250
        k(   10) = (   0.2500000   0.0000000   0.0000000), wk =   0.0312500
        k(   11) = (   0.2500000   0.0000000   0.0818817), wk =   0.0625000
        k(   12) = (   0.2500000   0.0000000  -0.1637633), wk =   0.0312500
        k(   13) = (   0.2500000   0.2465241   0.0000000), wk =   0.0625000
        k(   14) = (   0.2500000   0.2465241   0.0818817), wk =   0.1250000
        k(   15) = (   0.2500000   0.2465241  -0.1637633), wk =   0.0625000
        k(   16) = (   0.2500000  -0.4930482   0.0000000), wk =   0.0312500
        k(   17) = (   0.2500000  -0.4930482   0.0818817), wk =   0.0625000
        k(   18) = (   0.2500000  -0.4930482  -0.1637633), wk =   0.0312500
        k(   19) = (  -0.5000000   0.0000000   0.0000000), wk =   0.0156250
        k(   20) = (  -0.5000000   0.0000000   0.0818817), wk =   0.0312500
        k(   21) = (  -0.5000000   0.0000000  -0.1637633), wk =   0.0156250
        k(   22) = (  -0.5000000   0.2465241   0.0000000), wk =   0.0312500
        k(   23) = (  -0.5000000   0.2465241   0.0818817), wk =   0.0625000
        k(   24) = (  -0.5000000   0.2465241  -0.1637633), wk =   0.0312500
        k(   25) = (  -0.5000000  -0.4930482   0.0000000), wk =   0.0156250
        k(   26) = (  -0.5000000  -0.4930482   0.0818817), wk =   0.0312500
        k(   27) = (  -0.5000000  -0.4930482  -0.1637633), wk =   0.0156250

     Initial potential from superposition of free atoms

     starting charge     105.9608, renormalised to     106.0000

     negative rho (up, down):  2.175E-02 2.175E-02

     STARTING HUBBARD OCCUPATIONS:

     =================== HUBBARD OCCUPATIONS ===================
     ------------------------ ATOM    5 ------------------------
     Tr[ns(  5)] (up, down, total) =   5.00000  4.50000  9.50000
     Atomic magnetic moment for atom   5 =   0.50000
     SPIN  1
     eigenvalues:
       1.000  1.000  1.000  1.000  1.000
     eigenvectors (columns):
       1.000  0.000  0.000  0.000  0.000
       0.000  1.000  0.000  0.000  0.000
       0.000  0.000  1.000  0.000  0.000
       0.000  0.000  0.000  1.000  0.000
       0.000  0.000  0.000  0.000  1.000
     occupation matrix ns (before diag.):
       1.000  0.000  0.000  0.000  0.000
       0.000  1.000  0.000  0.000  0.000
       0.000  0.000  1.000  0.000  0.000
       0.000  0.000  0.000  1.000  0.000
       0.000  0.000  0.000  0.000  1.000
     SPIN  2
     eigenvalues:
       0.900  0.900  0.900  0.900  0.900
     eigenvectors (columns):
       1.000  0.000  0.000  0.000  0.000
       0.000  1.000  0.000  0.000  0.000
       0.000  0.000  1.000  0.000  0.000
       0.000  0.000  0.000  1.000  0.000
       0.000  0.000  0.000  0.000  1.000
     occupation matrix ns (before diag.):
       0.900  0.000  0.000  0.000  0.000
       0.000  0.900  0.000  0.000  0.000
       0.000  0.000  0.900  0.000  0.000
       0.000  0.000  0.000  0.900  0.000
       0.000  0.000  0.000  0.000  0.900
     ------------------------ ATOM    6 ------------------------
     Tr[ns(  6)] (up, down, total) =   4.50000  5.00000  9.50000
     Atomic magnetic moment for atom   6 =  -0.50000
     SPIN  1
     eigenvalues:
       0.900  0.900  0.900  0.900  0.900
     eigenvectors (columns):
       1.000  0.000  0.000  0.000  0.000
       0.000  1.000  0.000  0.000  0.000
       0.000  0.000  1.000  0.000  0.000
       0.000  0.000  0.000  1.000  0.000
       0.000  0.000  0.000  0.000  1.000
     occupation matrix ns (before diag.):
       0.900  0.000  0.000  0.000  0.000
       0.000  0.900  0.000  0.000  0.000
       0.000  0.000  0.900  0.000  0.000
       0.000  0.000  0.000  0.900  0.000
       0.000  0.000  0.000  0.000  0.900
     SPIN  2
     eigenvalues:
       1.000  1.000  1.000  1.000  1.000
     eigenvectors (columns):
       1.000  0.000  0.000  0.000  0.000
       0.000  1.000  0.000  0.000  0.000
       0.000  0.000  1.000  0.000  0.000
       0.000  0.000  0.000  1.000  0.000
       0.000  0.000  0.000  0.000  1.000
     occupation matrix ns (before diag.):
       1.000  0.000  0.000  0.000  0.000
       0.000  1.000  0.000  0.000  0.000
       0.000  0.000  1.000  0.000  0.000
       0.000  0.000  0.000  1.000  0.000
       0.000  0.000  0.000  0.000  1.000

     Number of occupied Hubbard levels =   19.0000

     Atomic wfc used for Hubbard projectors are orthogonalized

     Starting wfcs are   78 randomized atomic wfcs
     Checking if some PAW data can be deallocated...

     Self-consistent Calculation

     iteration #  1     ecut=    90.00 Ry     beta= 0.30
     Davidson diagonalization with overlap
     ethr =  1.00E-02,  avg # of iterations =  6.7

[...]

     total energy              =   -1889.33566693 Ry
     estimated scf accuracy    <       7.72102049 Ry

     total magnetization       =     0.04 Bohr mag/cell
     absolute magnetization    =     6.64 Bohr mag/cell

[...]

     iteration # 13     ecut=    90.00 Ry     beta= 0.30
     Davidson diagonalization with overlap
     c_bands:  2 eigenvalues not converged
     c_bands:  1 eigenvalues not converged
     c_bands:  2 eigenvalues not converged
     ethr =  1.37E-05,  avg # of iterations =  7.2

[...]

     iteration # 19     ecut=    90.00 Ry     beta= 0.30
     Davidson diagonalization with overlap
     c_bands:  1 eigenvalues not converged
     ethr =  7.60E-07,  avg # of iterations =  3.0

[...]

     total energy              =   -1891.45488904 Ry
     estimated scf accuracy    <          2.3E-09 Ry

[...]

     iteration # 45     ecut=    90.00 Ry     beta= 0.30
     Davidson diagonalization with overlap
     ethr =  1.05E-12,  avg # of iterations =  2.0

[...]

     Magnetic moment per site  (integrated on atomic sphere of radius R)
     atom   1 (R=0.257)  charge=  7.6123  magn=  0.0000
     atom   2 (R=0.297)  charge=  6.7137  magn= -0.0000
     atom   3 (R=0.297)  charge=  6.7137  magn= -0.0000
     atom   4 (R=0.196)  charge=  8.2328  magn= -0.0001
     atom   5 (R=0.207)  charge=  8.5142  magn= -0.0000
     atom   6 (R=0.207)  charge=  8.5142  magn= -0.0000
     atom   7 (R=0.196)  charge=  5.0699  magn=  0.0000
     atom   8 (R=0.196)  charge=  5.0699  magn= -0.0000
     atom   9 (R=0.196)  charge=  5.0648  magn=  0.0000
     atom  10 (R=0.196)  charge=  5.0648  magn= -0.0000
     atom  11 (R=0.196)  charge=  4.9849  magn= -0.0004
     atom  12 (R=0.196)  charge=  5.0194  magn= -0.0003
     atom  13 (R=0.196)  charge=  5.0194  magn= -0.0003

     End of self-consistent calculation

     =================== HUBBARD OCCUPATIONS ===================
     ------------------------ ATOM    5 ------------------------
     Tr[ns(  5)] (up, down, total) =   4.70403  4.70405  9.40808
     Atomic magnetic moment for atom   5 =  -0.00002
     SPIN  1
     eigenvalues:
       0.757  0.962  0.994  0.994  0.996
     eigenvectors (columns):
      -0.019  1.000 -0.000 -0.000  0.000
      -0.000  0.000  0.000  1.000  0.000
      -0.000  0.000  1.000 -0.000  0.000
       1.000  0.019  0.000  0.000 -0.000
       0.000 -0.000 -0.000 -0.000  1.000
     occupation matrix ns (before diag.):
       0.962 -0.000 -0.000  0.004  0.000
      -0.000  0.994 -0.000  0.000  0.000
      -0.000 -0.000  0.994  0.000  0.000
       0.004  0.000  0.000  0.757 -0.000
       0.000  0.000  0.000 -0.000  0.996
     SPIN  2
     eigenvalues:
       0.757  0.962  0.994  0.994  0.996
     eigenvectors (columns):
      -0.019  1.000 -0.000 -0.000  0.000
      -0.000  0.000  0.000  1.000  0.000
      -0.000  0.000  1.000 -0.000  0.000
       1.000  0.019  0.000  0.000 -0.000
       0.000 -0.000 -0.000 -0.000  1.000
     occupation matrix ns (before diag.):
       0.962 -0.000 -0.000  0.004  0.000
      -0.000  0.994 -0.000  0.000  0.000
      -0.000 -0.000  0.994  0.000  0.000
       0.004  0.000  0.000  0.757 -0.000
       0.000  0.000  0.000 -0.000  0.996
     ------------------------ ATOM    6 ------------------------
     Tr[ns(  6)] (up, down, total) =   4.70402  4.70406  9.40808
     Atomic magnetic moment for atom   6 =  -0.00003
     SPIN  1
     eigenvalues:
       0.757  0.962  0.994  0.994  0.996
     eigenvectors (columns):
      -0.019  1.000 -0.000 -0.000  0.000
      -0.000  0.000  0.000  1.000  0.000
      -0.000  0.000  1.000 -0.000  0.000
       1.000  0.019  0.000  0.000 -0.000
       0.000 -0.000 -0.000 -0.000  1.000
     occupation matrix ns (before diag.):
       0.962 -0.000 -0.000  0.004  0.000
      -0.000  0.994 -0.000  0.000  0.000
      -0.000 -0.000  0.994  0.000  0.000
       0.004  0.000  0.000  0.757 -0.000
       0.000  0.000  0.000 -0.000  0.996
     SPIN  2
     eigenvalues:
       0.757  0.962  0.994  0.994  0.996
     eigenvectors (columns):
      -0.019  1.000 -0.000 -0.000  0.000
      -0.000  0.000  0.000  1.000  0.000
      -0.000  0.000  1.000 -0.000  0.000
       1.000  0.019  0.000  0.000 -0.000
       0.000 -0.000 -0.000 -0.000  1.000
     occupation matrix ns (before diag.):
       0.962 -0.000 -0.000  0.004  0.000
      -0.000  0.994 -0.000  0.000  0.000
      -0.000 -0.000  0.994  0.000  0.000
       0.004  0.000  0.000  0.757 -0.000
       0.000  0.000  0.000 -0.000  0.996

     Number of occupied Hubbard levels =   18.8162

 ------ SPIN UP ------------

          k = 0.0000 0.0000 0.0000 ( 17411 PWs)   bands (ev):

   -31.8841 -16.2047 -16.1926 -12.3444 -11.8846 -11.8708  -8.9836  -8.0905
    -7.8980  -7.6305  -7.5729  -6.7387  -6.5845  -1.4133  -1.3874  -1.1875
    -1.1738  -1.0753  -1.0506   4.5463   4.5734   4.6250   4.8393   4.8431
     4.8921   5.7434   5.8009   5.8911   6.1144   6.1383   6.1458   6.1681
     6.2137   6.2161   6.3029   6.4930   6.7427   6.7778   7.0277   7.1419
     7.2267   7.3273   7.3365   7.3793   7.4082   7.5154   7.7563   7.8341
     7.8488   8.5739   8.6855   8.8872   8.9536   9.2288   9.2659  11.8403
    12.8803  13.5110  13.7509  14.3411  14.3951  14.9994  15.5477  15.6304

[...]

          k =-0.5000 0.0000 0.0000 ( 17502 PWs)   bands (ev):

[...]

 ------ SPIN DOWN ----------

[...]

          k = 0.2500-0.4930-0.1638 ( 17460 PWs)   bands (ev):

[...]

          k =-0.5000-0.4930-0.1638 ( 17504 PWs)   bands (ev):

   -31.8620 -16.0173 -16.0089 -12.3692 -12.3374 -11.9408  -8.0629  -8.0396
    -7.6304  -7.5544  -7.0390  -6.9987  -6.7995  -1.8705  -1.8637  -1.8550
    -1.6767  -1.5233  -1.3971   2.2156   2.7794   3.6830   3.7954   3.8582
     4.1651   4.2639   4.9042   4.9298   4.9586   5.3071   5.3799   5.6503
     5.7844   6.1884   6.4652   7.2893   7.3217   7.4766   7.7706   7.8731
     7.9108   7.9193   7.9851   8.0339   8.1479   8.3165   8.3898   8.6363
     8.9626   9.0305   9.3416   9.4842  11.1878  11.2467  11.3324  12.3529
    12.6995  14.5240  15.0707  15.3601  15.4107  15.6587  15.9844  16.3092

     the Fermi energy is     9.4099 ev

!    total energy              =   -1891.45488904 Ry
     estimated scf accuracy    <          4.1E-10 Ry
     smearing contrib. (-TS)   =       0.00297031 Ry
     internal energy E=F+TS    =   -1891.45785935 Ry

     The total energy is F=E-TS. E is the sum of the following terms:
     one-electron contribution =    -289.15666619 Ry
     hartree contribution      =     240.48209385 Ry
     xc contribution           =    -248.59556136 Ry
     ewald contribution        =    -508.16927526 Ry
     Hubbard energy            =       0.08655971 Ry
     one-center paw contrib.   =   -1086.10501010 Ry

     total magnetization       =    -0.00 Bohr mag/cell
     absolute magnetization    =     0.00 Bohr mag/cell

     convergence has been achieved in  45 iterations

     negative rho (up, down):  2.244E-02 2.244E-02

     Forces acting on atoms (cartesian axes, Ry/au):

     atom    1 type  1   force =     0.00000000    0.00000000   -0.00000152
     atom    2 type  2   force =     0.00000000    0.00000000   -0.02058554
     atom    3 type  2   force =     0.00000000    0.00000000    0.02058817
     atom    4 type  3   force =     0.00000000    0.00000000   -0.00000546
     atom    5 type  4   force =     0.00000000    0.00000000   -0.02000520
     atom    6 type  5   force =     0.00000000    0.00000000    0.02000989
     atom    7 type  6   force =     0.00000000    0.00000000    0.01110640
     atom    8 type  6   force =     0.00000000    0.00000000   -0.01110819
     atom    9 type  6   force =     0.00000000    0.00000000    0.01259282
     atom   10 type  6   force =     0.00000000    0.00000000   -0.01259441
     atom   11 type  6   force =     0.00000000    0.00000000    0.00000028
     atom   12 type  6   force =     0.00000000    0.00000000    0.00665977
     atom   13 type  6   force =     0.00000000    0.00000000   -0.00665701

     Total force =     0.047967     Total SCF correction =     0.000018

     Writing all to output data dir ./YBCO7/YBCO7.save/

     General routines

     Parallel routines

     Hubbard U routines
                                        0.00s GPU  (       1 calls)

   This run was terminated on:  22:27:34  23Dec2023

   JOB DONE.