     Program PWSCF v.7.2 starts on 16Dec2023 at 10: 2:25

     Waiting for input...
     Reading input from standard input

     Current dimensions of program PWSCF are:
     Max number of different atomic species (ntypx) = 10
     Max number of k-points (npk) =  40000
     Max angular momentum in pseudopotentials (lmaxx) =  4

     File ./YBCO.vc-relax/YBCO.vc-relax.update deleted, as requested

     File ./YBCO.vc-relax/YBCO.vc-relax.bfgs deleted, as requested

     R & G space division:  proc/nbgrp/npool/nimage =       4
     Subspace diagonalization in iterative solution of the eigenvalue problem:
     a serial algorithm will be used

     Using Slab Decomposition

     bravais-lattice index     =            8
     lattice parameter (alat)  =       7.2193  a.u.
     unit-cell volume          =    1170.3381 (a.u.)^3
     number of atoms/cell      =           13
     number of atomic types    =            6
     number of electrons       =       130.00
     number of Kohn-Sham states=           78
     kinetic-energy cutoff     =      90.0000  Ry
     charge density cutoff     =     720.0000  Ry
     scf convergence threshold =      1.0E-08
     mixing beta               =       0.1000
     number of iterations used =            8  plain     mixing
     energy convergence thresh.=      1.0E-04
     force convergence thresh. =      1.0E-03
     press convergence thresh. =      5.0E-01
     Exchange-correlation= SLA  PW   PBE  PBE
                           (   1   4   3   4   0   0   0)
     nstep                     =           50

     Hubbard projectors: ortho-atomic
     Hubbard parameters of DFT+U (Dudarev formulation) in eV:
     U(Cu1-3d) =  2.5000
     U(Cu2-3d) =  2.5000

     Internal variables: lda_plus_u = T, lda_plus_u_kind = 0

     celldm(1)=   7.219321  celldm(2)=   1.017061  celldm(3)=   3.058265
     celldm(4)=   0.000000  celldm(5)=   0.000000  celldm(6)=   0.000000

     crystal axes: (cart. coord. in units of alat)
               a(1) = (   1.000000   0.000000   0.000000 )
               a(2) = (   0.000000   1.017061   0.000000 )
               a(3) = (   0.000000   0.000000   3.058265 )

     reciprocal axes: (cart. coord. in units 2 pi/alat)
               b(1) = (  1.000000  0.000000  0.000000 )
               b(2) = (  0.000000  0.983225  0.000000 )
               b(3) = (  0.000000  0.000000  0.326983 )

     PseudoPot. # 1 for Y  read from file:
     ~/q-e/pseudo/all_pbe_UPF_v1.5/y_pbe_v1.4.uspp.F.UPF
     MD5 check sum: Not computed, couldn't open file
     Pseudo is Ultrasoft + core correction, Zval = 11.0
     Generated by new atomic code, or converted to UPF format
     Using radial grid of  885 points,  6 beta functions with:
                l(1) =   0
                l(2) =   0
                l(3) =   1
                l(4) =   1
                l(5) =   2
                l(6) =   2
     Q(r) pseudized with  8 coefficients,  rinner =    1.200   1.200   1.200
                                                       1.200   1.200

     PseudoPot. # 2 for Ba read from file:
     ~/q-e/pseudo/all_pbe_UPF_v1.5/ba_pbe_v1.uspp.F.UPF
     MD5 check sum: Not computed, couldn't open file
     Pseudo is Ultrasoft + core correction, Zval = 10.0
     Generated by new atomic code, or converted to UPF format
     Using radial grid of  907 points,  7 beta functions with:
                l(1) =   0
                l(2) =   0
                l(3) =   1
                l(4) =   1
                l(5) =   2
                l(6) =   2
                l(7) =   3
     Q(r) pseudized with  6 coefficients,  rinner =    1.700   1.700   1.700
                                                       1.700   1.700   1.700
                                                       1.700

     PseudoPot. # 3 for Cu read from file:
     ~/q-e/pseudo/all_pbe_UPF_v1.5/cu_pbe_v1.2.uspp.F.UPF
     MD5 check sum: Not computed, couldn't open file
     Pseudo is Ultrasoft + core correction, Zval = 19.0
     Generated by new atomic code, or converted to UPF format
     Using radial grid of  867 points,  6 beta functions with:
                l(1) =   0
                l(2) =   0
                l(3) =   1
                l(4) =   1
                l(5) =   2
                l(6) =   2
     Q(r) pseudized with  8 coefficients,  rinner =    1.150   1.150   1.150
                                                       1.150   1.150

[...]

     PseudoPot. # 6 for O  read from file:
     ~/q-e/pseudo/all_pbe_UPF_v1.5/o_pbe_v1.2.uspp.F.UPF
     MD5 check sum: Not computed, couldn't open file
     Pseudo is Ultrasoft + core correction, Zval =  6.0
     Generated by new atomic code, or converted to UPF format
     Using radial grid of  737 points,  5 beta functions with:
                l(1) =   0
                l(2) =   0
                l(3) =   1
                l(4) =   1
                l(5) =   2
     Q(r) pseudized with  8 coefficients,  rinner =    0.900   0.900   0.900
                                                       0.900   0.900

     atomic species   valence    mass     pseudopotential
     Y                11.00    88.90584     Y ( 1.00)
     Ba               10.00   137.32700     Ba( 1.00)
     Cu               19.00    63.54600     Cu( 1.00)
     Cu1              19.00    63.54600     Cu( 1.00)
     Cu2              19.00    63.54600     Cu( 1.00)
     O                 6.00    15.99900     O ( 1.00)

     Starting magnetic structure
     atomic species   magnetization
     Y               0.000
     Ba              0.000
     Cu              0.000
     Cu1             0.100
     Cu2            -0.100
     O               0.000

      4 Sym. Ops. (no inversion) found

                                    s                        frac. trans.

      isym =  1     identity

 cryst.   s( 1) = (     1          0          0      )
                  (     0          1          0      )
                  (     0          0          1      )

 cart.    s( 1) = (  1.0000000  0.0000000  0.0000000 )
                  (  0.0000000  1.0000000  0.0000000 )
                  (  0.0000000  0.0000000  1.0000000 )

      isym =  2     180 deg rotation - cart. axis [0,0,1]

[...]

      isym =  3     inv. 180 deg rotation - cart. axis [0,1,0]

[...]

     point group C_2v (mm2)
     there are  4 classes
     the character table:

       E     C2    s_v   s_v'
A_1    1.00  1.00  1.00  1.00
A_2    1.00  1.00 -1.00 -1.00
B_1    1.00 -1.00  1.00 -1.00
B_2    1.00 -1.00 -1.00  1.00

     the symmetry operations in each class and the name of the first element:

     E        1
          identity
     C2       2
          180 deg rotation - cart. axis [0,0,1]
     s_v      4
          inv. 180 deg rotation - cart. axis [1,0,0]
     s_v'     3
          inv. 180 deg rotation - cart. axis [0,1,0]

   Cartesian axes

     site n.     atom                  positions (alat units)
         1        Y      tau(   1) = (   0.5000000   0.5085307   1.5291325  )
         2        Ba     tau(   2) = (   0.5000000   0.5085307   0.5625067  )
         3        Ba     tau(   3) = (   0.5000000   0.5085307   2.4957584  )
         4        Cu     tau(   4) = (   0.0000000   0.0000000   0.0000000  )
         5        Cu1    tau(   5) = (   0.0000000   0.0000000   1.0857147  )
         6        Cu2    tau(   6) = (   0.0000000   0.0000000   1.9725504  )
         7        O      tau(   7) = (   0.5000000   0.0000000   1.1566053  )
         8        O      tau(   8) = (   0.5000000   0.0000000   1.9016598  )
         9        O      tau(   9) = (   0.0000000   0.5085307   1.1527518  )
        10        O      tau(  10) = (   0.0000000   0.5085307   1.9055132  )
        11        O      tau(  11) = (   0.0000000   0.5085307   0.0000000  )
        12        O      tau(  12) = (   0.0000000   0.0000000   0.4844292  )
        13        O      tau(  13) = (   0.0000000   0.0000000   2.5738359  )

   Crystallographic axes

     site n.     atom                  positions (cryst. coord.)
         1        Y      tau(   1) = (  0.5000000  0.5000000  0.5000000  )
         2        Ba     tau(   2) = (  0.5000000  0.5000000  0.1839300  )
         3        Ba     tau(   3) = (  0.5000000  0.5000000  0.8160700  )
         4        Cu     tau(   4) = (  0.0000000  0.0000000  0.0000000  )
         5        Cu1    tau(   5) = (  0.0000000  0.0000000  0.3550100  )
         6        Cu2    tau(   6) = (  0.0000000  0.0000000  0.6449900  )
         7        O      tau(   7) = (  0.5000000  0.0000000  0.3781900  )
         8        O      tau(   8) = (  0.5000000  0.0000000  0.6218100  )
         9        O      tau(   9) = (  0.0000000  0.5000000  0.3769300  )
        10        O      tau(  10) = (  0.0000000  0.5000000  0.6230700  )
        11        O      tau(  11) = (  0.0000000  0.5000000  0.0000000  )
        12        O      tau(  12) = (  0.0000000  0.0000000  0.1584000  )
        13        O      tau(  13) = (  0.0000000  0.0000000  0.8416000  )

     number of k points=     8  Methfessel-Paxton smearing, width (Ry)=  0.0200
                       cart. coord. in units 2pi/alat
        k(    1) = (   0.0000000   0.0000000   0.0000000), wk =   0.1250000
        k(    2) = (   0.0000000   0.0000000  -0.1634914), wk =   0.1250000
        k(    3) = (   0.0000000  -0.4916124   0.0000000), wk =   0.1250000
        k(    4) = (   0.0000000  -0.4916124  -0.1634914), wk =   0.1250000
        k(    5) = (  -0.5000000   0.0000000   0.0000000), wk =   0.1250000
        k(    6) = (  -0.5000000   0.0000000  -0.1634914), wk =   0.1250000
        k(    7) = (  -0.5000000  -0.4916124   0.0000000), wk =   0.1250000
        k(    8) = (  -0.5000000  -0.4916124  -0.1634914), wk =   0.1250000

                       cryst. coord.
        k(    1) = (   0.0000000   0.0000000   0.0000000), wk =   0.1250000
        k(    2) = (   0.0000000   0.0000000  -0.5000000), wk =   0.1250000
        k(    3) = (   0.0000000  -0.5000000   0.0000000), wk =   0.1250000
        k(    4) = (   0.0000000  -0.5000000  -0.5000000), wk =   0.1250000
        k(    5) = (  -0.5000000   0.0000000   0.0000000), wk =   0.1250000
        k(    6) = (  -0.5000000   0.0000000  -0.5000000), wk =   0.1250000
        k(    7) = (  -0.5000000  -0.5000000   0.0000000), wk =   0.1250000
        k(    8) = (  -0.5000000  -0.5000000  -0.5000000), wk =   0.1250000

     Initial potential from superposition of free atoms

     starting charge     126.9655, renormalised to     130.0000

     negative rho (up, down):  9.664E-02 9.664E-02

     HUBBARD ENERGY =    0.2205  (Ry)

     STARTING HUBBARD OCCUPATIONS:

     =================== HUBBARD OCCUPATIONS ===================
     ------------------------ ATOM    5 ------------------------
     Tr[ns(  5)] (up, down, total) =   5.00000  3.00000  8.00000
     Atomic magnetic moment for atom   5 =   2.00000
     SPIN  1
     eigenvalues:
       1.000  1.000  1.000  1.000  1.000
     eigenvectors (columns):
       1.000  0.000  0.000  0.000  0.000
       0.000  1.000  0.000  0.000  0.000
       0.000  0.000  1.000  0.000  0.000
       0.000  0.000  0.000  1.000  0.000
       0.000  0.000  0.000  0.000  1.000
     occupation matrix ns (before diag.):
[...]

[...]

     total energy              =   -1671.41718532 Ry
     estimated scf accuracy    <          1.3E-10 Ry

[...]

     iteration # 90     ecut=    90.00 Ry     beta= 0.10
     Davidson diagonalization with overlap

     ethr =  1.03E-13,  avg # of iterations =  3.4

     =================== HUBBARD OCCUPATIONS ===================
     ------------------------ ATOM    5 ------------------------
     Tr[ns(  5)] (up, down, total) =   4.77654  4.49635  9.27289
     Atomic magnetic moment for atom   5 =   0.28018
     SPIN  1
     eigenvalues:
       0.879  0.943  0.983  0.984  0.988
     eigenvectors (columns):
      -0.111  0.994 -0.000 -0.000  0.000
      -0.000  0.000  1.000 -0.000  0.000
      -0.000  0.000  0.000  1.000  0.000
       0.994  0.111  0.000  0.000 -0.000
       0.000 -0.000 -0.000 -0.000  1.000
     occupation matrix ns (before diag.):
       0.942 -0.000 -0.000  0.007  0.000
      -0.000  0.983 -0.000  0.000  0.000
      -0.000 -0.000  0.984  0.000  0.000
       0.007  0.000  0.000  0.879 -0.000
       0.000  0.000  0.000 -0.000  0.988
     SPIN  2
     eigenvalues:
       0.602  0.942  0.982  0.983  0.987
     eigenvectors (columns):
      -0.026  1.000 -0.000 -0.000  0.000
      -0.000  0.000  1.000 -0.000  0.000
      -0.000  0.000  0.000  1.000  0.000
       1.000  0.026  0.000  0.000 -0.000
       0.000 -0.000 -0.000 -0.000  1.000
     occupation matrix ns (before diag.):
       0.942 -0.000 -0.000  0.009  0.000
      -0.000  0.982 -0.000  0.000  0.000
      -0.000 -0.000  0.983  0.000  0.000
       0.009  0.000  0.000  0.602 -0.000
       0.000  0.000  0.000 -0.000  0.987
     ------------------------ ATOM    6 ------------------------
     Tr[ns(  6)] (up, down, total) =   4.49635  4.77654  9.27289
     Atomic magnetic moment for atom   6 =  -0.28019
     SPIN  1
     eigenvalues:
       0.602  0.942  0.982  0.983  0.987
     eigenvectors (columns):
      -0.026  1.000 -0.000 -0.000  0.000
      -0.000  0.000  1.000 -0.000  0.000
      -0.000  0.000  0.000  1.000  0.000
       1.000  0.026  0.000  0.000 -0.000
       0.000 -0.000 -0.000 -0.000  1.000
     occupation matrix ns (before diag.):
       0.942 -0.000 -0.000  0.009  0.000
      -0.000  0.982 -0.000  0.000  0.000
      -0.000 -0.000  0.983  0.000  0.000
       0.009  0.000  0.000  0.602 -0.000
       0.000  0.000  0.000 -0.000  0.987
     SPIN  2
     eigenvalues:
       0.879  0.943  0.983  0.984  0.988
     eigenvectors (columns):
      -0.111  0.994 -0.000 -0.000  0.000
      -0.000  0.000  1.000 -0.000  0.000
      -0.000  0.000  0.000  1.000  0.000
       0.994  0.111  0.000  0.000 -0.000
       0.000 -0.000 -0.000 -0.000  1.000
     occupation matrix ns (before diag.):
       0.942 -0.000 -0.000  0.007  0.000
      -0.000  0.983 -0.000  0.000  0.000
      -0.000 -0.000  0.984  0.000  0.000
       0.007  0.000  0.000  0.879 -0.000
       0.000  0.000  0.000 -0.000  0.988

     Number of occupied Hubbard levels =   18.5458

[...]

     HUBBARD ENERGY =    0.1003  (Ry)

     Magnetic moment per site  (integrated on atomic sphere of radius R)
     atom   1 (R=0.258)  charge=  7.5640  magn=  0.0000
     atom   2 (R=0.296)  charge=  6.6031  magn= -0.0001
     atom   3 (R=0.296)  charge=  6.6031  magn=  0.0001
     atom   4 (R=0.197)  charge= 16.0549  magn= -0.0002
     atom   5 (R=0.208)  charge= 16.3924  magn=  0.2935
     atom   6 (R=0.208)  charge= 16.3924  magn= -0.2935
     atom   7 (R=0.197)  charge=  5.0388  magn=  0.0154
     atom   8 (R=0.197)  charge=  5.0388  magn= -0.0154
     atom   9 (R=0.197)  charge=  5.0327  magn=  0.0209
     atom  10 (R=0.197)  charge=  5.0327  magn= -0.0209
     atom  11 (R=0.197)  charge=  4.9446  magn= -0.0000
     atom  12 (R=0.197)  charge=  4.9674  magn= -0.0024
     atom  13 (R=0.197)  charge=  4.9674  magn=  0.0024

     End of self-consistent calculation

 ------ SPIN UP ------------

[...]

 ------ SPIN DOWN ----------

[...]

          k = 0.0000-0.4843-0.1617 ( 17492 PWs)   bands (ev):

[...]

          k =-0.4936-0.4843-0.1617 ( 17552 PWs)   bands (ev):

  -102.6218-101.9971-101.5675 -60.2164 -60.0021 -59.7485 -59.6177 -59.5626
   -59.0886 -59.0361 -58.9935 -58.8091 -30.9283 -15.5163 -15.5077 -11.4077
   -11.3724 -11.0024  -6.9744  -6.9075  -6.7799  -6.5770  -6.5411  -6.5142
    -6.4383  -1.3850  -1.3729  -1.3559  -1.1919  -0.9908  -0.8522   3.2171
     3.7836   4.4554   4.6863   4.7248   5.2530   5.2603   5.3478   5.8065
     5.8376   6.1392   6.2341   6.3568   6.5179   6.6271   6.7699   7.7590
     7.9776   8.3464   8.3560   8.3785   8.7471   8.8019   8.8048   8.8343
     8.8650   9.1653   9.2426   9.3718   9.3731   9.4283   9.5937   9.7071
    11.8234  11.9214  12.6000  13.0262  13.1893  15.4006  15.8316  15.9051
    16.1456  16.2189  16.5208  16.9320  16.9876  17.4514

     occupation numbers
     1.0000   1.0000   1.0000   1.0000   1.0000   1.0000   1.0000   1.0000
     1.0000   1.0000   1.0000   1.0000   1.0000   1.0000   1.0000   1.0000
     1.0000   1.0000   1.0000   1.0000   1.0000   1.0000   1.0000   1.0000
     1.0000   1.0000   1.0000   1.0000   1.0000   1.0000   1.0000   1.0000
     1.0000   1.0000   1.0000   1.0000   1.0000   1.0000   1.0000   1.0000
     1.0000   1.0000   1.0000   1.0000   1.0000   1.0000   1.0000   1.0000
     1.0000   1.0000   1.0000   1.0000   1.0000   1.0000   1.0000   1.0001
     1.0001   1.0128   1.0250   1.0318   1.0315   1.0071   0.7185   0.3761
    -0.0000  -0.0000  -0.0000  -0.0000  -0.0000  -0.0000  -0.0000  -0.0000
    -0.0000  -0.0000  -0.0000  -0.0000  -0.0000  -0.0000

     the Fermi energy is     9.6668 ev

!    total energy              =   -1671.41718532 Ry
     estimated scf accuracy    <          9.1E-11 Ry
     smearing contrib. (-TS)   =      -0.00167213 Ry
     internal energy E=F+TS    =   -1671.41551319 Ry

     The total energy is F=E-TS. E is the sum of the following terms:
     one-electron contribution =   -1328.10171913 Ry
     hartree contribution      =     735.93036986 Ry
     xc contribution           =    -250.56046419 Ry
     ewald contribution        =    -828.78402867 Ry
     Hubbard energy            =       0.10032893 Ry

     total magnetization       =    -0.00 Bohr mag/cell
     absolute magnetization    =     0.78 Bohr mag/cell

     convergence has been achieved in  90 iterations

     negative rho (up, down):  8.700E-02 8.700E-02

     Forces acting on atoms (cartesian axes, Ry/au):

     atom    1 type  1   force =     0.00000000    0.00000000   -0.00000120
     atom    2 type  2   force =     0.00000000    0.00000000    0.00003117
     atom    3 type  2   force =     0.00000000    0.00000000   -0.00003079
     atom    4 type  3   force =     0.00000000    0.00000000   -0.00000116
     atom    5 type  4   force =     0.00000000    0.00000000    0.00003083
     atom    6 type  5   force =     0.00000000    0.00000000   -0.00002940
     atom    7 type  6   force =     0.00000000    0.00000000   -0.00014305
     atom    8 type  6   force =     0.00000000    0.00000000    0.00014191
     atom    9 type  6   force =     0.00000000    0.00000000   -0.00000706
     atom   10 type  6   force =     0.00000000    0.00000000    0.00000587
     atom   11 type  6   force =     0.00000000    0.00000000    0.00000073
     atom   12 type  6   force =     0.00000000    0.00000000    0.00028121
     atom   13 type  6   force =     0.00000000    0.00000000   -0.00027905
     The non-local contrib.  to forces
     atom    1 type  1   force =     0.00000000    0.00000000   -0.00000057
     atom    2 type  2   force =     0.00000000    0.00000000   -0.00351904
     atom    3 type  2   force =     0.00000000    0.00000000    0.00352016
     atom    4 type  3   force =     0.00000000    0.00000000   -0.00000286
     atom    5 type  4   force =     0.00000000    0.00000000    0.02726135
     atom    6 type  5   force =     0.00000000    0.00000000   -0.02727563
     atom    7 type  6   force =     0.00000000    0.00000000    0.13387142
     atom    8 type  6   force =     0.00000000    0.00000000   -0.13387724
     atom    9 type  6   force =     0.00000000    0.00000000    0.17857134
     atom   10 type  6   force =     0.00000000    0.00000000   -0.17857072
     atom   11 type  6   force =     0.00000000    0.00000000    0.00000187
     atom   12 type  6   force =     0.00000000    0.00000000   -0.49360358
     atom   13 type  6   force =     0.00000000    0.00000000    0.49359902
     The ionic contribution  to forces
     atom    1 type  1   force =    -0.00000000    0.00000000   -0.00032903
     atom    2 type  2   force =    -0.00000000    0.00000000  -14.69241587
     atom    3 type  2   force =    -0.00000000    0.00000000   14.69276927
     atom    4 type  3   force =     0.00000000   -0.00000000    0.00087718
     atom    5 type  4   force =     0.00000000   -0.00000000  -34.71386917
     atom    6 type  5   force =     0.00000000   -0.00000000   34.71270025
     atom    7 type  6   force =    -0.00000000   -0.00000000  -10.36516221
     atom    8 type  6   force =    -0.00000000   -0.00000000   10.36484529
     atom    9 type  6   force =     0.00000000    0.00000000  -10.56929385
     atom   10 type  6   force =     0.00000000    0.00000000   10.56892125
     atom   11 type  6   force =     0.00000000    0.00000000    0.00029027
     atom   12 type  6   force =     0.00000000   -0.00000000    2.26259264
     atom   13 type  6   force =     0.00000000   -0.00000000   -2.26192602
     The local contribution  to forces
     atom    1 type  1   force =    -0.00000000    0.00000000    0.00032749
     atom    2 type  2   force =    -0.00000000    0.00000000   14.69569766
     atom    3 type  2   force =    -0.00000000    0.00000000  -14.69605112
     atom    4 type  3   force =    -0.00000000    0.00000000   -0.00087446
     atom    5 type  4   force =    -0.00000000   -0.00000000   34.68284397
     atom    6 type  5   force =    -0.00000000    0.00000000  -34.68166088
     atom    7 type  6   force =    -0.00000000   -0.00000000   10.23153204
     atom    8 type  6   force =    -0.00000000    0.00000000  -10.23121104
     atom    9 type  6   force =    -0.00000000    0.00000000   10.39141960
     atom   10 type  6   force =    -0.00000000    0.00000000  -10.39104954
     atom   11 type  6   force =    -0.00000000    0.00000000   -0.00029086
     atom   12 type  6   force =    -0.00000000   -0.00000000   -1.77141418
     atom   13 type  6   force =     0.00000000    0.00000000    1.77075482
     The core correction contribution to forces
     atom    1 type  1   force =     0.00000000   -0.00000000    0.00000003
     atom    2 type  2   force =     0.00000000   -0.00000000    0.00050544
     atom    3 type  2   force =     0.00000000   -0.00000000   -0.00050545
     atom    4 type  3   force =    -0.00000000    0.00000000   -0.00000000
     atom    5 type  4   force =     0.00000000   -0.00000000   -0.00007503
     atom    6 type  5   force =    -0.00000000   -0.00000000    0.00007506
     atom    7 type  6   force =    -0.00000000   -0.00000000   -0.00054922
     atom    8 type  6   force =    -0.00000000    0.00000000    0.00054928
     atom    9 type  6   force =    -0.00000000    0.00000000   -0.00085045
     atom   10 type  6   force =    -0.00000000    0.00000000    0.00085045
     atom   11 type  6   force =    -0.00000000    0.00000000   -0.00000002
     atom   12 type  6   force =     0.00000000    0.00000000    0.00288538
     atom   13 type  6   force =    -0.00000000   -0.00000000   -0.00288537
     The Hubbard contrib.    to forces
     atom    1 type  1   force =     0.00000000    0.00000000    0.00000000
     atom    2 type  2   force =     0.00000000    0.00000000   -0.00023885
     atom    3 type  2   force =     0.00000000    0.00000000    0.00023887
     atom    4 type  3   force =     0.00000000    0.00000000    0.00000000
     atom    5 type  4   force =     0.00000000    0.00000000    0.00387483
     atom    6 type  5   force =     0.00000000    0.00000000   -0.00387517
     atom    7 type  6   force =     0.00000000    0.00000000    0.00016601
     atom    8 type  6   force =     0.00000000    0.00000000   -0.00016601
     atom    9 type  6   force =     0.00000000    0.00000000    0.00014737
     atom   10 type  6   force =     0.00000000    0.00000000   -0.00014738
     atom   11 type  6   force =     0.00000000    0.00000000    0.00000000
     atom   12 type  6   force =     0.00000000    0.00000000   -0.00018077
     atom   13 type  6   force =     0.00000000    0.00000000    0.00018080
     The SCF correction term to forces
     atom    1 type  1   force =    -0.00000000   -0.00000000    0.00000092
     atom    2 type  2   force =     0.00000000    0.00000000    0.00000189
     atom    3 type  2   force =    -0.00000000   -0.00000000   -0.00000247
     atom    4 type  3   force =    -0.00000000    0.00000000   -0.00000097
     atom    5 type  4   force =    -0.00000000   -0.00000000   -0.00000507
     atom    6 type  5   force =    -0.00000000    0.00000000    0.00000701
     atom    7 type  6   force =    -0.00000000    0.00000000   -0.00000104
     atom    8 type  6   force =    -0.00000000   -0.00000000    0.00000167
     atom    9 type  6   force =    -0.00000000    0.00000000   -0.00000102
     atom   10 type  6   force =    -0.00000000   -0.00000000    0.00000186
     atom   11 type  6   force =     0.00000000   -0.00000000   -0.00000047
     atom   12 type  6   force =    -0.00000000    0.00000000    0.00000177
     atom   13 type  6   force =     0.00000000   -0.00000000   -0.00000226

     Total force =     0.000449     Total SCF correction =     0.000010

     Computing stress (Cartesian axis) and pressure

     negative rho (up, down):  8.700E-02 8.700E-02
          total   stress  (Ry/bohr**3)                   (kbar)     P=        0.54
   0.00000357   0.00000000   0.00000000            0.53        0.00        0.00
   0.00000000   0.00000247   0.00000000            0.00        0.36        0.00
   0.00000000   0.00000000   0.00000497            0.00        0.00        0.73

     kinetic stress (kbar)  22182.34      0.00      0.00
                                0.00  22008.85      0.00
                                0.00      0.00  22284.96

     local   stress (kbar) -26164.42      0.00     -0.00
                                0.00 -43306.96     -0.00
                               -0.00     -0.00   6144.93

     nonloc. stress (kbar)  10996.01      0.00      0.00
                                0.00  10987.58      0.00
                                0.00      0.00  11099.42

     hartree stress (kbar)  32205.23     -0.00      0.00
                               -0.00  39900.53      0.00
                                0.00      0.00  16856.42

     exc-cor stress (kbar)   -468.50      0.00     -0.00
                                0.00   -463.41      0.00
                               -0.00      0.00   -472.71

     corecor stress (kbar)  -7539.87      0.00     -0.00
                                0.00  -7539.80      0.00
                               -0.00      0.00  -7540.70

     ewald   stress (kbar) -30895.36     -0.00      0.00
                               -0.00 -21268.42      0.00
                                0.00      0.00 -48022.91

     hubbard stress (kbar)   -314.90      0.00      0.00
                                0.00   -318.01      0.00
                                0.00      0.00   -348.67

     DFT-D   stress (kbar)      0.00      0.00      0.00
                                0.00      0.00      0.00
                                0.00      0.00      0.00

     XDM     stress (kbar)      0.00      0.00      0.00
                                0.00      0.00      0.00
                                0.00      0.00      0.00

     dft-nl  stress (kbar)      0.00      0.00      0.00
                                0.00      0.00      0.00
                                0.00      0.00      0.00

     TS-vdW  stress (kbar)      0.00      0.00      0.00
                                0.00      0.00      0.00
                                0.00      0.00      0.00

     MDB     stress (kbar)      0.00      0.00      0.00
                                0.00      0.00      0.00
                                0.00      0.00      0.00

     3D-RISM stress (kbar)      0.00      0.00      0.00
                                0.00      0.00      0.00
                                0.00      0.00      0.00

     Writing all to output data dir ./YBCO.vc-relax/YBCO.vc-relax.save/

     General routines

     Parallel routines

     Hubbard U routines
                                        0.00s GPU  (      17 calls)

   This run was terminated on:  12:29:35  16Dec2023

   JOB DONE.