     Program PWSCF v.7.2 starts on 13Dec2023 at 22:23:57

     Waiting for input...
     Reading input from standard input

     Current dimensions of program PWSCF are:
     Max number of different atomic species (ntypx) = 10
     Max number of k-points (npk) =  40000
     Max angular momentum in pseudopotentials (lmaxx) =  4

     R & G space division:  proc/nbgrp/npool/nimage =       4
     Subspace diagonalization in iterative solution of the eigenvalue problem:
     a serial algorithm will be used

     Using Slab Decomposition

     bravais-lattice index     =            8
     lattice parameter (alat)  =       7.2193  a.u.
     unit-cell volume          =    1170.3381 (a.u.)^3
     number of atoms/cell      =           13
     number of atomic types    =            4
     number of electrons       =       130.00
     number of Kohn-Sham states=           78
     kinetic-energy cutoff     =      90.0000  Ry
     charge density cutoff     =     720.0000  Ry
     scf convergence threshold =      1.0E-08
     mixing beta               =       0.1000
     number of iterations used =            8  plain     mixing
     energy convergence thresh.=      1.0E-04
     force convergence thresh. =      1.0E-03
     press convergence thresh. =      5.0E-01
     Exchange-correlation= SLA  PW   PBE  PBE
                           (   1   4   3   4   0   0   0)
     nstep                     =           50

     celldm(1)=   7.219321  celldm(2)=   1.017061  celldm(3)=   3.058265
     celldm(4)=   0.000000  celldm(5)=   0.000000  celldm(6)=   0.000000

     crystal axes: (cart. coord. in units of alat)
               a(1) = (   1.000000   0.000000   0.000000 )
               a(2) = (   0.000000   1.017061   0.000000 )
               a(3) = (   0.000000   0.000000   3.058265 )

     reciprocal axes: (cart. coord. in units 2 pi/alat)
               b(1) = (  1.000000  0.000000  0.000000 )
               b(2) = (  0.000000  0.983225  0.000000 )
               b(3) = (  0.000000  0.000000  0.326983 )

     PseudoPot. # 1 for Y  read from file:
     ~/q-e/pseudo/all_pbe_UPF_v1.5/y_pbe_v1.4.uspp.F.UPF
     MD5 check sum: Not computed, couldn't open file
     Pseudo is Ultrasoft + core correction, Zval = 11.0
     Generated by new atomic code, or converted to UPF format
     Using radial grid of  885 points,  6 beta functions with:
                l(1) =   0
                l(2) =   0
                l(3) =   1
                l(4) =   1
                l(5) =   2
                l(6) =   2
     Q(r) pseudized with  8 coefficients,  rinner =    1.200   1.200   1.200
                                                       1.200   1.200

     PseudoPot. # 2 for Ba read from file:
     ~/q-e/pseudo/all_pbe_UPF_v1.5/ba_pbe_v1.uspp.F.UPF
     MD5 check sum: Not computed, couldn't open file
     Pseudo is Ultrasoft + core correction, Zval = 10.0
     Generated by new atomic code, or converted to UPF format
     Using radial grid of  907 points,  7 beta functions with:
                l(1) =   0
                l(2) =   0
                l(3) =   1
                l(4) =   1
                l(5) =   2
                l(6) =   2
                l(7) =   3
     Q(r) pseudized with  6 coefficients,  rinner =    1.700   1.700   1.700
                                                       1.700   1.700   1.700
                                                       1.700

     PseudoPot. # 3 for Cu read from file:
     ~/q-e/pseudo/all_pbe_UPF_v1.5/cu_pbe_v1.2.uspp.F.UPF
     MD5 check sum: Not computed, couldn't open file
     Pseudo is Ultrasoft + core correction, Zval = 19.0
     Generated by new atomic code, or converted to UPF format
     Using radial grid of  867 points,  6 beta functions with:
                l(1) =   0
                l(2) =   0
                l(3) =   1
                l(4) =   1
                l(5) =   2
                l(6) =   2
     Q(r) pseudized with  8 coefficients,  rinner =    1.150   1.150   1.150
                                                       1.150   1.150

     PseudoPot. # 4 for O  read from file:
     ~/q-e/pseudo/all_pbe_UPF_v1.5/o_pbe_v1.2.uspp.F.UPF
     MD5 check sum: Not computed, couldn't open file
     Pseudo is Ultrasoft + core correction, Zval =  6.0
     Generated by new atomic code, or converted to UPF format
     Using radial grid of  737 points,  5 beta functions with:
                l(1) =   0
                l(2) =   0
                l(3) =   1
                l(4) =   1
                l(5) =   2
     Q(r) pseudized with  8 coefficients,  rinner =    0.900   0.900   0.900
                                                       0.900   0.900

     atomic species   valence    mass     pseudopotential
     Y                11.00    88.90584     Y ( 1.00)
     Ba               10.00   137.32700     Ba( 1.00)
     Cu               19.00    63.54600     Cu( 1.00)
     O                 6.00    15.99900     O ( 1.00)

      8 Sym. Ops., with inversion, found

                                    s                        frac. trans.

      isym =  1     identity

 cryst.   s( 1) = (     1          0          0      )
                  (     0          1          0      )
                  (     0          0          1      )

 cart.    s( 1) = (  1.0000000  0.0000000  0.0000000 )
                  (  0.0000000  1.0000000  0.0000000 )
                  (  0.0000000  0.0000000  1.0000000 )

      isym =  2     180 deg rotation - cart. axis [0,0,1]

[...]

      isym =  5     inversion

[...]

      isym =  6     inv. 180 deg rotation - cart. axis [0,0,1]

[...]

     point group D_2h (mmm)
     there are  8 classes
     the character table:

       E     C2    C2'   C2''  i     s_v   s_v'  s_v''
A_g    1.00  1.00  1.00  1.00  1.00  1.00  1.00  1.00
B_1g   1.00  1.00 -1.00 -1.00  1.00  1.00 -1.00 -1.00
B_2g   1.00 -1.00  1.00 -1.00  1.00 -1.00  1.00 -1.00
B_3g   1.00 -1.00 -1.00  1.00  1.00 -1.00 -1.00  1.00
A_u    1.00  1.00  1.00  1.00 -1.00 -1.00 -1.00 -1.00
B_1u   1.00  1.00 -1.00 -1.00 -1.00 -1.00  1.00  1.00
B_2u   1.00 -1.00  1.00 -1.00 -1.00  1.00 -1.00  1.00
B_3u   1.00 -1.00 -1.00  1.00 -1.00  1.00  1.00 -1.00

     the symmetry operations in each class and the name of the first element:

     E        1
          identity
     C2       2
          180 deg rotation - cart. axis [0,0,1]
     C2'      4
          180 deg rotation - cart. axis [1,0,0]
     C2''     3
          180 deg rotation - cart. axis [0,1,0]
     i        5
          inversion
     s_v      6
          inv. 180 deg rotation - cart. axis [0,0,1]
     s_v'     8
          inv. 180 deg rotation - cart. axis [1,0,0]
     s_v''    7
          inv. 180 deg rotation - cart. axis [0,1,0]

   Cartesian axes

     site n.     atom                  positions (alat units)
         1        Y      tau(   1) = (   0.5000000   0.5085307   1.5291325  )
         2        Ba     tau(   2) = (   0.5000000   0.5085307   0.5625067  )
         3        Ba     tau(   3) = (   0.5000000   0.5085307   2.4957584  )
         4        Cu     tau(   4) = (   0.0000000   0.0000000   0.0000000  )
         5        Cu     tau(   5) = (   0.0000000   0.0000000   1.0857147  )
         6        Cu     tau(   6) = (   0.0000000   0.0000000   1.9725504  )
         7        O      tau(   7) = (   0.5000000   0.0000000   1.1566053  )
         8        O      tau(   8) = (   0.5000000   0.0000000   1.9016598  )
         9        O      tau(   9) = (   0.0000000   0.5085307   1.1527518  )
        10        O      tau(  10) = (   0.0000000   0.5085307   1.9055132  )
        11        O      tau(  11) = (   0.0000000   0.5085307   0.0000000  )
        12        O      tau(  12) = (   0.0000000   0.0000000   0.4844292  )
        13        O      tau(  13) = (   0.0000000   0.0000000   2.5738359  )

   Crystallographic axes

     site n.     atom                  positions (cryst. coord.)
         1        Y      tau(   1) = (  0.5000000  0.5000000  0.5000000  )
         2        Ba     tau(   2) = (  0.5000000  0.5000000  0.1839300  )
         3        Ba     tau(   3) = (  0.5000000  0.5000000  0.8160700  )
         4        Cu     tau(   4) = (  0.0000000  0.0000000  0.0000000  )
         5        Cu     tau(   5) = (  0.0000000  0.0000000  0.3550100  )
         6        Cu     tau(   6) = (  0.0000000  0.0000000  0.6449900  )
         7        O      tau(   7) = (  0.5000000  0.0000000  0.3781900  )
         8        O      tau(   8) = (  0.5000000  0.0000000  0.6218100  )
         9        O      tau(   9) = (  0.0000000  0.5000000  0.3769300  )
        10        O      tau(  10) = (  0.0000000  0.5000000  0.6230700  )
        11        O      tau(  11) = (  0.0000000  0.5000000  0.0000000  )
        12        O      tau(  12) = (  0.0000000  0.0000000  0.1584000  )
        13        O      tau(  13) = (  0.0000000  0.0000000  0.8416000  )

     number of k points=     8  Methfessel-Paxton smearing, width (Ry)=  0.0100
                       cart. coord. in units 2pi/alat
        k(    1) = (   0.0000000   0.0000000   0.0000000), wk =   0.2500000
        k(    2) = (   0.0000000   0.0000000  -0.1634914), wk =   0.2500000
        k(    3) = (   0.0000000  -0.4916124   0.0000000), wk =   0.2500000
        k(    4) = (   0.0000000  -0.4916124  -0.1634914), wk =   0.2500000
        k(    5) = (  -0.5000000   0.0000000   0.0000000), wk =   0.2500000
        k(    6) = (  -0.5000000   0.0000000  -0.1634914), wk =   0.2500000
        k(    7) = (  -0.5000000  -0.4916124   0.0000000), wk =   0.2500000
        k(    8) = (  -0.5000000  -0.4916124  -0.1634914), wk =   0.2500000

                       cryst. coord.
        k(    1) = (   0.0000000   0.0000000   0.0000000), wk =   0.2500000
        k(    2) = (   0.0000000   0.0000000  -0.5000000), wk =   0.2500000
        k(    3) = (   0.0000000  -0.5000000   0.0000000), wk =   0.2500000
        k(    4) = (   0.0000000  -0.5000000  -0.5000000), wk =   0.2500000
        k(    5) = (  -0.5000000   0.0000000   0.0000000), wk =   0.2500000
        k(    6) = (  -0.5000000   0.0000000  -0.5000000), wk =   0.2500000
        k(    7) = (  -0.5000000  -0.5000000   0.0000000), wk =   0.2500000
        k(    8) = (  -0.5000000  -0.5000000  -0.5000000), wk =   0.2500000

     Initial potential from superposition of free atoms

     starting charge     126.9655, renormalised to     130.0000

     negative rho (up, down):  1.933E-01 0.000E+00
     Starting wfcs are  106 randomized atomic wfcs

     Self-consistent Calculation

     iteration #  1     ecut=    90.00 Ry     beta= 0.10
     Davidson diagonalization with overlap

     ethr =  1.00E-02,  avg # of iterations =  2.0

     negative rho (up, down):  1.912E-01 0.000E+00

     total energy              =   -1671.57933407 Ry
     estimated scf accuracy    <       2.83215435 Ry

[...]

     ethr =  1.42E-04,  avg # of iterations =  1.0
     Minimization algorithm failed to find Fermi energy: reverting to bisection
     Possible cause: smearing is larger than the electronic band-gap.

[...]

     End of self-consistent calculation

          k = 0.0000 0.0000 0.0000 ( 16893 PWs)   bands (ev):

[...]
         4        Cu     tau(   4) = (   0.0000000   0.0000000   0.0000000  )
         5        Cu     tau(   5) = (   0.0000000   0.0000000   1.1323001  )
         6        Cu     tau(   6) = (   0.0000000   0.0000000   1.9233531  )
         7        O      tau(   7) = (   0.5056872   0.0000000   1.1577894  )
         8        O      tau(   8) = (   0.5056872   0.0000000   1.8978638  )
         9        O      tau(   9) = (   0.0000000   0.5183503   1.1536955  )
        10        O      tau(  10) = (   0.0000000   0.5183503   1.9019578  )
        11        O      tau(  11) = (   0.0000000   0.5183503   0.0000000  )
        12        O      tau(  12) = (   0.0000000   0.0000000   0.4846246  )
        13        O      tau(  13) = (   0.0000000   0.0000000   2.5710287  )

   Crystallographic axes

     site n.     atom                  positions (cryst. coord.)
         1        Y      tau(   1) = (  0.5000000  0.5000000  0.5000000  )
         2        Ba     tau(   2) = (  0.5000000  0.5000000  0.1869036  )
         3        Ba     tau(   3) = (  0.5000000  0.5000000  0.8130964  )
         4        Cu     tau(   4) = (  0.0000000  0.0000000  0.0000000  )
         5        Cu     tau(   5) = (  0.0000000  0.0000000  0.3705591  )
         6        Cu     tau(   6) = (  0.0000000  0.0000000  0.6294409  )
         7        O      tau(   7) = (  0.5000000  0.0000000  0.3789008  )
         8        O      tau(   8) = (  0.5000000  0.0000000  0.6210992  )
         9        O      tau(   9) = (  0.0000000  0.5000000  0.3775610  )
        10        O      tau(  10) = (  0.0000000  0.5000000  0.6224390  )
        11        O      tau(  11) = (  0.0000000  0.5000000  0.0000000  )
        12        O      tau(  12) = (  0.0000000  0.0000000  0.1585993  )
        13        O      tau(  13) = (  0.0000000  0.0000000  0.8414007  )

     number of k points=     8  Methfessel-Paxton smearing, width (Ry)=  0.0100
                       cart. coord. in units 2pi/alat
        k(    1) = (   0.0000000   0.0000000   0.0000000), wk =   0.2500000
        k(    2) = (   0.0000000   0.0000000  -0.1636311), wk =   0.2500000
        k(    3) = (   0.0000000  -0.4822993   0.0000000), wk =   0.2500000
        k(    4) = (   0.0000000  -0.4822993  -0.1636311), wk =   0.2500000
        k(    5) = (  -0.4943767   0.0000000   0.0000000), wk =   0.2500000
        k(    6) = (  -0.4943767   0.0000000  -0.1636311), wk =   0.2500000
        k(    7) = (  -0.4943767  -0.4822993   0.0000000), wk =   0.2500000
        k(    8) = (  -0.4943767  -0.4822993  -0.1636311), wk =   0.2500000

                       cryst. coord.
        k(    1) = (   0.0000000   0.0000000   0.0000000), wk =   0.2500000
        k(    2) = (   0.0000000   0.0000000  -0.5000000), wk =   0.2500000
        k(    3) = (   0.0000000  -0.5000000   0.0000000), wk =   0.2500000
        k(    4) = (   0.0000000  -0.5000000  -0.5000000), wk =   0.2500000
        k(    5) = (  -0.5000000   0.0000000   0.0000000), wk =   0.2500000
        k(    6) = (  -0.5000000   0.0000000  -0.5000000), wk =   0.2500000
        k(    7) = (  -0.5000000  -0.5000000   0.0000000), wk =   0.2500000
        k(    8) = (  -0.5000000  -0.5000000  -0.5000000), wk =   0.2500000

     Initial potential from superposition of free atoms

     starting charge     126.9655, renormalised to     130.0000

     negative rho (up, down):  1.933E-01 0.000E+00
     Starting wfcs are  106 randomized atomic wfcs

     Self-consistent Calculation

[...]

     c_bands:  2 eigenvalues not converged
     c_bands:  1 eigenvalues not converged
     c_bands:  1 eigenvalues not converged
     ethr =  1.00E-06,  avg # of iterations = 16.0

[...]

     ethr =  2.53E-04,  avg # of iterations =  2.0
     Minimization algorithm failed to find Fermi energy: reverting to bisection
     Possible cause: smearing is larger than the electronic band-gap.

[...]

     total energy              =   -1671.52508188 Ry
     estimated scf accuracy    <          1.1E-10 Ry

     iteration # 36     ecut=    90.00 Ry     beta= 0.10
     Davidson diagonalization with overlap

     ethr =  1.00E-13,  avg # of iterations =  2.0

[...]

     End of self-consistent calculation

[...]

          k = 0.0000-0.4823-0.1636 ( 17360 PWs)   bands (ev):

[...]

          k =-0.4944-0.4823-0.1636 ( 17392 PWs)   bands (ev):

  -102.3592-102.1215-102.1213 -59.9703 -59.7448 -59.6278 -59.6276 -59.5632
   -59.5630 -59.4724 -59.3413 -59.3380 -30.8181 -15.3010 -15.2894 -11.3118
   -11.2851 -10.9089  -6.9675  -6.8244  -6.5936  -6.5646  -6.3653  -6.3380
    -6.2953  -1.1869  -1.1631  -1.1415  -0.9572  -0.8204  -0.6437   3.2690
     3.9053   4.9709   5.0619   5.1060   5.1835   5.5910   5.7272   6.2153
     6.2518   6.5955   6.7823   6.9204   6.9488   6.9581   7.0359   8.1331
     8.3031   8.6048   8.7845   8.9281   8.9923   9.1023   9.2427   9.3093
     9.3170   9.4317   9.5360   9.6117   9.6174   9.6892   9.8033   9.8624
    12.0072  12.3579  12.4228  13.0401  13.3644  15.4564  15.9850  16.0712
    16.2814  16.4389  16.7571  17.1547  17.1676  17.6250

     occupation numbers
     1.0000   1.0000   1.0000   1.0000   1.0000   1.0000   1.0000   1.0000
     1.0000   1.0000   1.0000   1.0000   1.0000   1.0000   1.0000   1.0000
     1.0000   1.0000   1.0000   1.0000   1.0000   1.0000   1.0000   1.0000
     1.0000   1.0000   1.0000   1.0000   1.0000   1.0000   1.0000   1.0000
     1.0000   1.0000   1.0000   1.0000   1.0000   1.0000   1.0000   1.0000
     1.0000   1.0000   1.0000   1.0000   1.0000   1.0000   1.0000   1.0000
     1.0000   1.0000   1.0000   1.0000   1.0000   1.0000   1.0000   1.0000
     1.0000   1.0001   1.0038   1.0207   1.0226   1.0317   0.6999   0.3421
    -0.0000  -0.0000  -0.0000  -0.0000  -0.0000  -0.0000  -0.0000  -0.0000
    -0.0000  -0.0000  -0.0000  -0.0000  -0.0000  -0.0000

     the Fermi energy is     9.8365 ev

!    total energy              =   -1671.52508446 Ry
     estimated scf accuracy    <          4.7E-11 Ry
     smearing contrib. (-TS)   =      -0.00083440 Ry
     internal energy E=F+TS    =   -1671.52425006 Ry

     The total energy is F=E-TS. E is the sum of the following terms:
     one-electron contribution =   -1317.85628212 Ry
     hartree contribution      =     730.92223839 Ry
     xc contribution           =    -250.49899857 Ry
     ewald contribution        =    -834.09120776 Ry

     convergence has been achieved in  36 iterations

     negative rho (up, down):  1.735E-01 0.000E+00

     Forces acting on atoms (cartesian axes, Ry/au):

     atom    1 type  1   force =     0.00000000    0.00000000    0.00000000
     atom    2 type  2   force =     0.00000000    0.00000000    0.00068835
     atom    3 type  2   force =     0.00000000    0.00000000   -0.00068835
     atom    4 type  3   force =     0.00000000    0.00000000    0.00000000
     atom    5 type  3   force =     0.00000000    0.00000000   -0.00009099
     atom    6 type  3   force =     0.00000000    0.00000000    0.00009099
     atom    7 type  4   force =     0.00000000    0.00000000   -0.00012868
     atom    8 type  4   force =     0.00000000    0.00000000    0.00012868
     atom    9 type  4   force =     0.00000000    0.00000000    0.00002922
     atom   10 type  4   force =     0.00000000    0.00000000   -0.00002922
     atom   11 type  4   force =     0.00000000    0.00000000    0.00000000
     atom   12 type  4   force =     0.00000000    0.00000000    0.00025359
     atom   13 type  4   force =     0.00000000    0.00000000   -0.00025359
     The non-local contrib.  to forces
     atom    1 type  1   force =     0.00000000    0.00000000    0.00000000
     atom    2 type  2   force =     0.00000000    0.00000000    0.00188681
     atom    3 type  2   force =     0.00000000    0.00000000   -0.00188681
     atom    4 type  3   force =     0.00000000    0.00000000    0.00000000
     atom    5 type  3   force =     0.00000000    0.00000000    0.04024906
     atom    6 type  3   force =     0.00000000    0.00000000   -0.04024906
     atom    7 type  4   force =     0.00000000    0.00000000    0.14373731
     atom    8 type  4   force =     0.00000000    0.00000000   -0.14373731
     atom    9 type  4   force =     0.00000000    0.00000000    0.21569282
     atom   10 type  4   force =     0.00000000    0.00000000   -0.21569282
     atom   11 type  4   force =     0.00000000    0.00000000    0.00000000
     atom   12 type  4   force =     0.00000000    0.00000000   -0.46566233
     atom   13 type  4   force =     0.00000000    0.00000000    0.46566233
     The ionic contribution  to forces
     atom    1 type  1   force =     0.00000000   -0.00000000   -0.00000000
     atom    2 type  2   force =     0.00000000   -0.00000000  -14.16111767
     atom    3 type  2   force =     0.00000000   -0.00000000   14.16111767
     atom    4 type  3   force =    -0.00000000    0.00000000    0.00000000
     atom    5 type  3   force =    -0.00000000    0.00000000  -34.32804682
     atom    6 type  3   force =    -0.00000000    0.00000000   34.32804682
     atom    7 type  4   force =     0.00000000    0.00000000  -10.49685238
     atom    8 type  4   force =     0.00000000    0.00000000   10.49685238
     atom    9 type  4   force =    -0.00000000   -0.00000000  -10.81232280
     atom   10 type  4   force =    -0.00000000   -0.00000000   10.81232280
     atom   11 type  4   force =    -0.00000000   -0.00000000   -0.00000000
     atom   12 type  4   force =    -0.00000000    0.00000000    1.58341971
     atom   13 type  4   force =    -0.00000000    0.00000000   -1.58341971
     The local contribution  to forces
     atom    1 type  1   force =     0.00000000   -0.00000000   -0.00000000
     atom    2 type  2   force =     0.00000000   -0.00000000   14.15943756
     atom    3 type  2   force =     0.00000000   -0.00000000  -14.15943756
     atom    4 type  3   force =    -0.00000000    0.00000000   -0.00000000
     atom    5 type  3   force =    -0.00000000    0.00000000   34.28783850
     atom    6 type  3   force =    -0.00000000   -0.00000000  -34.28783850
     atom    7 type  4   force =     0.00000000    0.00000000   10.35360419
     atom    8 type  4   force =     0.00000000    0.00000000  -10.35360419
     atom    9 type  4   force =     0.00000000   -0.00000000   10.59780411
     atom   10 type  4   force =    -0.00000000   -0.00000000  -10.59780411
     atom   11 type  4   force =    -0.00000000   -0.00000000   -0.00000000
     atom   12 type  4   force =     0.00000000   -0.00000000   -1.12022091
     atom   13 type  4   force =    -0.00000000   -0.00000000    1.12022091
     The core correction contribution to forces
     atom    1 type  1   force =    -0.00000000    0.00000000    0.00000000
     atom    2 type  2   force =    -0.00000000    0.00000000    0.00047760
     atom    3 type  2   force =    -0.00000000    0.00000000   -0.00047760
     atom    4 type  3   force =    -0.00000000   -0.00000000   -0.00000000
     atom    5 type  3   force =    -0.00000000    0.00000000   -0.00014533
     atom    6 type  3   force =    -0.00000000   -0.00000000    0.00014533
     atom    7 type  4   force =     0.00000000   -0.00000000   -0.00061978
     atom    8 type  4   force =     0.00000000   -0.00000000    0.00061978
     atom    9 type  4   force =    -0.00000000   -0.00000000   -0.00114868
     atom   10 type  4   force =    -0.00000000   -0.00000000    0.00114868
     atom   11 type  4   force =    -0.00000000   -0.00000000   -0.00000000
     atom   12 type  4   force =     0.00000000    0.00000000    0.00271365
     atom   13 type  4   force =    -0.00000000    0.00000000   -0.00271365
     The Hubbard contrib.    to forces
     atom    1 type  1   force =     0.00000000    0.00000000    0.00000000
     atom    2 type  2   force =     0.00000000    0.00000000    0.00000000
     atom    3 type  2   force =     0.00000000    0.00000000    0.00000000
     atom    4 type  3   force =     0.00000000    0.00000000    0.00000000
     atom    5 type  3   force =     0.00000000    0.00000000    0.00000000
     atom    6 type  3   force =     0.00000000    0.00000000    0.00000000
     atom    7 type  4   force =     0.00000000    0.00000000    0.00000000
     atom    8 type  4   force =     0.00000000    0.00000000    0.00000000
     atom    9 type  4   force =     0.00000000    0.00000000    0.00000000
     atom   10 type  4   force =     0.00000000    0.00000000    0.00000000
     atom   11 type  4   force =     0.00000000    0.00000000    0.00000000
     atom   12 type  4   force =     0.00000000    0.00000000    0.00000000
     atom   13 type  4   force =     0.00000000    0.00000000    0.00000000
     The SCF correction term to forces
     atom    1 type  1   force =     0.00000000   -0.00000000   -0.00000000
     atom    2 type  2   force =     0.00000000   -0.00000000    0.00000406
     atom    3 type  2   force =    -0.00000000    0.00000000   -0.00000406
     atom    4 type  3   force =    -0.00000000   -0.00000000   -0.00000000
     atom    5 type  3   force =     0.00000000   -0.00000000    0.00001361
     atom    6 type  3   force =     0.00000000   -0.00000000   -0.00001361
     atom    7 type  4   force =     0.00000000   -0.00000000    0.00000198
     atom    8 type  4   force =     0.00000000    0.00000000   -0.00000198
     atom    9 type  4   force =    -0.00000000    0.00000000    0.00000377
     atom   10 type  4   force =     0.00000000   -0.00000000   -0.00000377
     atom   11 type  4   force =    -0.00000000   -0.00000000   -0.00000000
     atom   12 type  4   force =    -0.00000000    0.00000000    0.00000347
     atom   13 type  4   force =    -0.00000000   -0.00000000   -0.00000347

     Total force =     0.001062     Total SCF correction =     0.000022

     Computing stress (Cartesian axis) and pressure

     negative rho (up, down):  1.735E-01 0.000E+00
          total   stress  (Ry/bohr**3)                   (kbar)     P=        0.52
   0.00000399   0.00000000   0.00000000            0.59        0.00        0.00
   0.00000000   0.00000396   0.00000000            0.00        0.58        0.00
   0.00000000   0.00000000   0.00000260            0.00        0.00        0.38

     kinetic stress (kbar)  22415.39      0.00      0.00
                                0.00  22234.50      0.00
                                0.00      0.00  22434.21

     local   stress (kbar) -25929.89      0.00     -0.00
                                0.00 -42283.94     -0.00
                               -0.00     -0.00   5506.40

     nonloc. stress (kbar)  10823.42      0.00      0.00
                                0.00  10809.26      0.00
                                0.00      0.00  10826.88

     hartree stress (kbar)  32201.00      0.00     -0.00
                                0.00  39603.85     -0.00
                               -0.00     -0.00  17390.13

     exc-cor stress (kbar)   -469.24      0.00      0.00
                                0.00   -465.12     -0.00
                                0.00     -0.00   -475.17

     corecor stress (kbar)  -7611.62      0.00     -0.00
                                0.00  -7611.55      0.00
                               -0.00      0.00  -7612.19

     ewald   stress (kbar) -31428.46     -0.00     -0.00
                               -0.00 -22286.42     -0.00
                               -0.00     -0.00 -48069.88

     hubbard stress (kbar)      0.00      0.00      0.00
                                0.00      0.00      0.00
                                0.00      0.00      0.00

     DFT-D   stress (kbar)      0.00      0.00      0.00
                                0.00      0.00      0.00
                                0.00      0.00      0.00

     XDM     stress (kbar)      0.00      0.00      0.00
                                0.00      0.00      0.00
                                0.00      0.00      0.00

     dft-nl  stress (kbar)      0.00      0.00      0.00
                                0.00      0.00      0.00
                                0.00      0.00      0.00

     TS-vdW  stress (kbar)      0.00      0.00      0.00
                                0.00      0.00      0.00
                                0.00      0.00      0.00

     MDB     stress (kbar)      0.00      0.00      0.00
                                0.00      0.00      0.00
                                0.00      0.00      0.00

     3D-RISM stress (kbar)      0.00      0.00      0.00
                                0.00      0.00      0.00
                                0.00      0.00      0.00

     Writing all to output data dir ./YBCO.vc-relax/YBCO.vc-relax.save/

     General routines

     Parallel routines

   This run was terminated on:  22:59:17  13Dec2023

   JOB DONE.