     Program PWSCF v.7.2 starts on  6Jan2024 at 11:53:32

     Waiting for input...
     Reading input from standard input

     Current dimensions of program PWSCF are:
     Max number of different atomic species (ntypx) = 10
     Max number of k-points (npk) =  40000
     Max angular momentum in pseudopotentials (lmaxx) =  4

     File ./Bi2Pd/Bi2Pd.update deleted, as requested

     File ./Bi2Pd/Bi2Pd.bfgs deleted, as requested
     file Bi.rel-pz-dn-rrkjus_psl.1.0.0.UPF: wavefunction(s)  5D 5D renormalized
     file Pd.rel-pz-n-rrkjus_psl.1.0.0.UPF: wavefunction(s)  4D 4D renormalized
     Found identity + (  0.5000  0.5000 -0.5000) symmetry
     This is a supercell, fractional translations are disabled

     R & G space division:  proc/nbgrp/npool/nimage =       4
     Subspace diagonalization in iterative solution of the eigenvalue problem:
     a serial algorithm will be used

     Using Slab Decomposition

     bravais-lattice index     =            6
     lattice parameter (alat)  =       6.3999  a.u.
     unit-cell volume          =    1025.3225 (a.u.)^3
     number of atoms/cell      =            6
     number of atomic types    =            2
     number of electrons       =        80.00
     number of Kohn-Sham states=           96
     kinetic-energy cutoff     =      60.0000  Ry
     charge density cutoff     =     540.0000  Ry
     scf convergence threshold =      1.0E-08
     mixing beta               =       0.1000
     number of iterations used =            8  plain     mixing
     Exchange-correlation= LDA
                           (   1   1   0   0   0   0   0)
     Non magnetic calculation with spin-orbit

     celldm(1)=   6.399898  celldm(2)=   0.000000  celldm(3)=   3.911483
     celldm(4)=   0.000000  celldm(5)=   0.000000  celldm(6)=   0.000000

     crystal axes: (cart. coord. in units of alat)
               a(1) = (   1.000000   0.000000   0.000000 )
               a(2) = (   0.000000   1.000000   0.000000 )
               a(3) = (   0.000000   0.000000   3.911483 )

     reciprocal axes: (cart. coord. in units 2 pi/alat)
               b(1) = (  1.000000  0.000000  0.000000 )
               b(2) = (  0.000000  1.000000  0.000000 )
               b(3) = (  0.000000  0.000000  0.255658 )

     PseudoPot. # 1 for Bi read from file:
     ~/q-e/pseudo/pslibrary/rel-pz/PSEUDOPOTENTIALS/Bi.rel-pz-dn-rrkjus_psl.1.0.0.UPF
     MD5 check sum: Not computed, couldn't open file
     Pseudo is Ultrasoft + core correction, Zval = 15.0
     Generated using 'atomic' code by A. Dal Corso  v.7.2
     Using radial grid of 1283 points, 10 beta functions with:
                l(1) =   0
                l(2) =   0
                l(3) =   1
                l(4) =   1
                l(5) =   1
                l(6) =   1
                l(7) =   2
                l(8) =   2
                l(9) =   2
               l(10) =   2
     Q(r) pseudized with 0 coefficients

     PseudoPot. # 2 for Pd read from file:
     ~/q-e/pseudo/pslibrary/rel-pz/PSEUDOPOTENTIALS/Pd.rel-pz-n-rrkjus_psl.1.0.0.UPF
     MD5 check sum: Not computed, couldn't open file
     Pseudo is Ultrasoft + core correction, Zval = 10.0
     Generated using 'atomic' code by A. Dal Corso  v.7.2
     Using radial grid of 1235 points, 10 beta functions with:
                l(1) =   0
                l(2) =   0
                l(3) =   1
                l(4) =   1
                l(5) =   1
                l(6) =   1
                l(7) =   2
                l(8) =   2
                l(9) =   2
               l(10) =   2
     Q(r) pseudized with 0 coefficients

     atomic species   valence    mass     pseudopotential
     Bi               15.00   208.98000     Bi( 1.00)
     Pd               10.00   106.42000     Pd( 1.00)

     16 Sym. Ops., with inversion, found

                                    s                        frac. trans.

      isym =  1     identity

 cryst.   s( 1) = (     1          0          0      )
                  (     0          1          0      )
                  (     0          0          1      )

 cart.    s( 1) = (  1.0000000  0.0000000  0.0000000 )
                  (  0.0000000  1.0000000  0.0000000 )
                  (  0.0000000  0.0000000  1.0000000 )

      isym =  2     180 deg rotation - cart. axis [0,0,1]

[...]

      isym =  8      90 deg rotation - cart. axis [0,0,1]

[...]

      isym =  9     inversion

 cryst.   s( 9) = (    -1          0          0      )
                  (     0         -1          0      )
                  (     0          0         -1      )

 cart.    s( 9) = ( -1.0000000  0.0000000  0.0000000 )
                  (  0.0000000 -1.0000000  0.0000000 )
                  (  0.0000000  0.0000000 -1.0000000 )

      isym = 10     inv. 180 deg rotation - cart. axis [0,0,1]

 cryst.   s(10) = (     1          0          0      )
                  (     0          1          0      )
                  (     0          0         -1      )

 cart.    s(10) = (  1.0000000  0.0000000  0.0000000 )
                  (  0.0000000  1.0000000  0.0000000 )
                  (  0.0000000  0.0000000 -1.0000000 )

[...]

      isym = 16     inv.  90 deg rotation - cart. axis [0,0,1]

 cryst.   s(16) = (     0         -1          0      )
                  (     1          0          0      )
                  (     0          0         -1      )

 cart.    s(16) = (  0.0000000  1.0000000  0.0000000 )
                  ( -1.0000000  0.0000000  0.0000000 )
                  (  0.0000000  0.0000000 -1.0000000 )

     double point group D_4h(4/mmm)
     there are 14 classes and  4 irreducible representations
     the character table:

       E     -E    2C4   -2C4   C2    2C2' 2C2'' i     -i    2S4   -2S4   s_h
                               -C2   -2C2' -2C2'                         -s_h
G_6+   2.00 -2.00  1.41 -1.41  0.00  0.00  0.00  2.00 -2.00  1.41 -1.41  0.00
G_7+   2.00 -2.00 -1.41  1.41  0.00  0.00  0.00  2.00 -2.00 -1.41  1.41  0.00
G_6-   2.00 -2.00  1.41 -1.41  0.00  0.00  0.00 -2.00  2.00 -1.41  1.41  0.00
G_7-   2.00 -2.00 -1.41  1.41  0.00  0.00  0.00 -2.00  2.00  1.41 -1.41  0.00

        2s_v  2s_d
       -2s_v -2s_d
G_6+   0.00  0.00
G_7+   0.00  0.00
G_6-   0.00  0.00
G_7-   0.00  0.00

     the symmetry operations in each class and the name of the first element:

     E             1
          identity
     -E           -1
          identity E
     2C4           7    8
           90 deg rotation - cart. axis [0,0,-1]
     -2C4         -7   -8
           90 deg rotation - cart. axis [0,0,-1] E
      C2  -C2      2   -2
          180 deg rotation - cart. axis [0,0,1]
      2C2'-2C2'    3   -3    4   -4
          180 deg rotation - cart. axis [0,1,0]
     2C2''-2C2'    5   -5   -6    6
          180 deg rotation - cart. axis [1,1,0]
     i             9
          inversion
     -i           -9
          inversion E
     2S4          15   16
          inv.  90 deg rotation - cart. axis [0,0,-1]
     -2S4        -15  -16
          inv.  90 deg rotation - cart. axis [0,0,-1] E
      s_h -s_h    10  -10
          inv. 180 deg rotation - cart. axis [0,0,1]
      2s_v-2s_v   11  -11   12  -12
          inv. 180 deg rotation - cart. axis [0,1,0]
      2s_d-2s_d   13  -13  -14   14
          inv. 180 deg rotation - cart. axis [1,1,0]

   Cartesian axes

     site n.     atom                  positions (alat units)
         1        Bi     tau(   1) = (   0.5000000   0.5000000   0.5175674  )
         2        Bi     tau(   2) = (   0.5000000   0.5000000   3.3939153  )
         3        Bi     tau(   3) = (   0.0000000   0.0000000   1.4381739  )
         4        Bi     tau(   4) = (   0.0000000   0.0000000   2.4733087  )
         5        Pd     tau(   5) = (   0.0000000   0.0000000   0.0000000  )
         6        Pd     tau(   6) = (   0.5000000   0.5000000   1.9557413  )

   Crystallographic axes

     site n.     atom                  positions (cryst. coord.)
         1        Bi     tau(   1) = (  0.5000000  0.5000000  0.1323200  )
         2        Bi     tau(   2) = (  0.5000000  0.5000000  0.8676800  )
         3        Bi     tau(   3) = (  0.0000000  0.0000000  0.3676800  )
         4        Bi     tau(   4) = (  0.0000000  0.0000000  0.6323200  )
         5        Pd     tau(   5) = (  0.0000000  0.0000000  0.0000000  )
         6        Pd     tau(   6) = (  0.5000000  0.5000000  0.5000000  )

     number of k points=    18  Methfessel-Paxton smearing, width (Ry)=  0.0100
                       cart. coord. in units 2pi/alat
        k(    1) = (   0.0000000   0.0000000   0.0000000), wk =   0.0156250
        k(    2) = (   0.0000000   0.0000000   0.0639144), wk =   0.0312500
        k(    3) = (   0.0000000   0.0000000  -0.1278288), wk =   0.0156250
        k(    4) = (   0.0000000   0.2500000   0.0000000), wk =   0.0625000
        k(    5) = (   0.0000000   0.2500000   0.0639144), wk =   0.1250000
        k(    6) = (   0.0000000   0.2500000  -0.1278288), wk =   0.0625000
        k(    7) = (   0.0000000  -0.5000000   0.0000000), wk =   0.0312500
        k(    8) = (   0.0000000  -0.5000000   0.0639144), wk =   0.0625000
        k(    9) = (   0.0000000  -0.5000000  -0.1278288), wk =   0.0312500
        k(   10) = (   0.2500000   0.2500000   0.0000000), wk =   0.0625000
        k(   11) = (   0.2500000   0.2500000   0.0639144), wk =   0.1250000
        k(   12) = (   0.2500000   0.2500000  -0.1278288), wk =   0.0625000
        k(   13) = (   0.2500000  -0.5000000   0.0000000), wk =   0.0625000
        k(   14) = (   0.2500000  -0.5000000   0.0639144), wk =   0.1250000
        k(   15) = (   0.2500000  -0.5000000  -0.1278288), wk =   0.0625000
        k(   16) = (  -0.5000000  -0.5000000   0.0000000), wk =   0.0156250
        k(   17) = (  -0.5000000  -0.5000000   0.0639144), wk =   0.0312500
        k(   18) = (  -0.5000000  -0.5000000  -0.1278288), wk =   0.0156250

                       cryst. coord.
        k(    1) = (   0.0000000   0.0000000   0.0000000), wk =   0.0156250
        k(    2) = (   0.0000000   0.0000000   0.2500000), wk =   0.0312500
        k(    3) = (   0.0000000   0.0000000  -0.5000000), wk =   0.0156250
        k(    4) = (   0.0000000   0.2500000   0.0000000), wk =   0.0625000
        k(    5) = (   0.0000000   0.2500000   0.2500000), wk =   0.1250000
        k(    6) = (   0.0000000   0.2500000  -0.5000000), wk =   0.0625000
        k(    7) = (   0.0000000  -0.5000000   0.0000000), wk =   0.0312500
        k(    8) = (   0.0000000  -0.5000000   0.2500000), wk =   0.0625000
        k(    9) = (   0.0000000  -0.5000000  -0.5000000), wk =   0.0312500
        k(   10) = (   0.2500000   0.2500000   0.0000000), wk =   0.0625000
        k(   11) = (   0.2500000   0.2500000   0.2500000), wk =   0.1250000
        k(   12) = (   0.2500000   0.2500000  -0.5000000), wk =   0.0625000
        k(   13) = (   0.2500000  -0.5000000   0.0000000), wk =   0.0625000
        k(   14) = (   0.2500000  -0.5000000   0.2500000), wk =   0.1250000
        k(   15) = (   0.2500000  -0.5000000  -0.5000000), wk =   0.0625000
        k(   16) = (  -0.5000000  -0.5000000   0.0000000), wk =   0.0156250
        k(   17) = (  -0.5000000  -0.5000000   0.2500000), wk =   0.0312500
        k(   18) = (  -0.5000000  -0.5000000  -0.5000000), wk =   0.0156250

     Initial potential from superposition of free atoms

     starting charge      79.9965, renormalised to      80.0000
     Starting wfcs are  108 randomized atomic wfcs

     Self-consistent Calculation

     iteration #  1     ecut=    60.00 Ry     beta= 0.10
     Davidson diagonalization with overlap

     ethr =  1.00E-02,  avg # of iterations =  2.9

     Threshold (ethr) on eigenvalues was too large:
     Diagonalizing with lowered threshold

     Davidson diagonalization with overlap

[...]

     total energy              =    -754.34427951 Ry
     estimated scf accuracy    <       0.13413641 Ry

[...]

     total energy              =    -754.32168166 Ry
     estimated scf accuracy    <       0.00000004 Ry

     iteration # 17     ecut=    60.00 Ry     beta= 0.10
     Davidson diagonalization with overlap

     ethr =  1.78E-11,  avg # of iterations =  2.3

     End of self-consistent calculation

          k = 0.0000 0.0000 0.0000 (  8029 PWs)   bands (ev):

   -12.0007 -12.0007 -12.0006 -12.0006 -11.9984 -11.9984 -11.9984 -11.9984
   -11.9946 -11.9946 -11.9844 -11.9844 -11.9775 -11.9775 -11.9677 -11.9677
    -9.0566  -9.0566  -9.0560  -9.0560  -9.0549  -9.0549  -9.0543  -9.0543
    -9.0307  -9.0307  -9.0213  -9.0213  -8.9885  -8.9885  -8.9808  -8.9808
    -8.9366  -8.9366  -8.9261  -8.9261  -8.9195  -8.9195  -8.9074  -8.9074
    -0.8898  -0.8898  -0.3213  -0.3213  -0.0750  -0.0750   0.8328   0.8328
     6.2106   6.2106   7.8175   7.8175   8.4521   8.4521   8.4524   8.4524
     8.9052   8.9052   8.9791   8.9791   9.3237   9.3237   9.3434   9.3434
     9.5131   9.5131   9.7327   9.7327   9.8124   9.8124   9.8143   9.8143
    10.6259  10.6259  12.4257  12.4257  13.2455  13.2455  14.5946  14.5946
    14.7628  14.7628  15.0087  15.0087  15.4680  15.4680  15.5038  15.5038
    16.5217  16.5217  16.8058  16.8058  17.9056  17.9056  18.3896  18.3896

     occupation numbers
     1.0000   1.0000   1.0000   1.0000   1.0000   1.0000   1.0000   1.0000
     1.0000   1.0000   1.0000   1.0000   1.0000   1.0000   1.0000   1.0000
     1.0000   1.0000   1.0000   1.0000   1.0000   1.0000   1.0000   1.0000
     1.0000   1.0000   1.0000   1.0000   1.0000   1.0000   1.0000   1.0000
     1.0000   1.0000   1.0000   1.0000   1.0000   1.0000   1.0000   1.0000
     1.0000   1.0000   1.0000   1.0000   1.0000   1.0000   1.0000   1.0000
     1.0000   1.0000   1.0000   1.0000   1.0000   1.0000   1.0000   1.0000
     1.0000   1.0000   1.0000   1.0000   1.0000   1.0000   1.0000   1.0000
     1.0000   1.0000   1.0000   1.0000   1.0000   1.0000   1.0000   1.0000
     1.0000   1.0000  -0.0004  -0.0004  -0.0000  -0.0000  -0.0000  -0.0000
    -0.0000  -0.0000  -0.0000  -0.0000  -0.0000  -0.0000  -0.0000  -0.0000
    -0.0000  -0.0000  -0.0000  -0.0000  -0.0000  -0.0000  -0.0000  -0.0000

[...]

          k = 0.2500-0.5000-0.1278 (  8068 PWs)   bands (ev):

[...]

          k =-0.5000-0.5000 0.0000 (  8040 PWs)   bands (ev):

[...]

          k =-0.5000-0.5000-0.1278 (  8000 PWs)   bands (ev):

   -11.9804 -11.9804 -11.9804 -11.9804 -11.9660 -11.9660 -11.9660 -11.9660
   -11.9485 -11.9485 -11.9485 -11.9485 -11.9481 -11.9481 -11.9481 -11.9481
    -9.0361  -9.0361  -9.0361  -9.0361  -9.0219  -9.0219  -9.0219  -9.0219
    -8.9799  -8.9799  -8.9799  -8.9799  -8.9332  -8.9332  -8.9332  -8.9332
    -8.8874  -8.8874  -8.8874  -8.8874  -8.8848  -8.8848  -8.8848  -8.8848
     2.4051   2.4051   2.4051   2.4051   3.4852   3.4852   3.4852   3.4852
     7.0875   7.0875   7.0875   7.0875   7.6263   7.6263   7.6263   7.6263
     8.1220   8.1220   8.1220   8.1220   8.5398   8.5398   8.5398   8.5398
     9.2765   9.2765   9.2765   9.2765   9.5143   9.5143   9.5143   9.5143
    10.3953  10.3953  10.3953  10.3953  11.7354  11.7354  11.7354  11.7354
    12.5151  12.5151  12.5151  12.5151  13.5978  13.5978  13.5978  13.5978
    13.6268  13.6268  13.6268  13.6268  14.6860  14.6860  14.6860  14.6860

     occupation numbers
     1.0000   1.0000   1.0000   1.0000   1.0000   1.0000   1.0000   1.0000
     1.0000   1.0000   1.0000   1.0000   1.0000   1.0000   1.0000   1.0000
     1.0000   1.0000   1.0000   1.0000   1.0000   1.0000   1.0000   1.0000
     1.0000   1.0000   1.0000   1.0000   1.0000   1.0000   1.0000   1.0000
     1.0000   1.0000   1.0000   1.0000   1.0000   1.0000   1.0000   1.0000
     1.0000   1.0000   1.0000   1.0000   1.0000   1.0000   1.0000   1.0000
     1.0000   1.0000   1.0000   1.0000   1.0000   1.0000   1.0000   1.0000
     1.0000   1.0000   1.0000   1.0000   1.0000   1.0000   1.0000   1.0000
     1.0000   1.0000   1.0000   1.0000   1.0000   1.0000   1.0000   1.0000
     1.0000   1.0000   1.0000   1.0000   1.0022   1.0022   1.0022   1.0022
    -0.0000  -0.0000  -0.0000  -0.0000  -0.0000  -0.0000  -0.0000  -0.0000
    -0.0000  -0.0000  -0.0000  -0.0000  -0.0000  -0.0000  -0.0000  -0.0000

     the Fermi energy is    12.0553 ev

!    total energy              =    -754.32168174 Ry
     estimated scf accuracy    <          1.1E-09 Ry
     smearing contrib. (-TS)   =      -0.00039962 Ry
     internal energy E=F+TS    =    -754.32128212 Ry

     The total energy is F=E-TS. E is the sum of the following terms:
     one-electron contribution =    -189.19875563 Ry
     hartree contribution      =     154.60407270 Ry
     xc contribution           =    -170.25783555 Ry
     ewald contribution        =    -549.46876363 Ry

     convergence has been achieved in  17 iterations

     Writing all to output data dir ./Bi2Pd/Bi2Pd.save/

     General routines

     Parallel routines

   This run was terminated on:  11:56:57   6Jan2024

   JOB DONE.