     Program PWSCF v.7.2 starts on  3Dec2023 at  1:20:48

     Waiting for input...
     Reading input from standard input

     Current dimensions of program PWSCF are:
     Max number of different atomic species (ntypx) = 10
     Max number of k-points (npk) =  40000
     Max angular momentum in pseudopotentials (lmaxx) =  4
     file O.pbe-n-kjpaw_psl.0.1.UPF: wavefunction(s)  2P renormalized

     R & G space division:  proc/nbgrp/npool/nimage =       4
     Subspace diagonalization in iterative solution of the eigenvalue problem:
     a serial algorithm will be used

     Using Slab Decomposition

     bravais-lattice index     =            5
     lattice parameter (alat)  =       9.6715  a.u.
     unit-cell volume          =     246.2189 (a.u.)^3
     number of atoms/cell      =            4
     number of atomic types    =            3
     number of electrons       =        48.00 (up:  24.00, down:  24.00)
     number of Kohn-Sham states=           36
     kinetic-energy cutoff     =      50.0000  Ry
     charge density cutoff     =     500.0000  Ry
     scf convergence threshold =      1.0E-09
     mixing beta               =       0.3000
     number of iterations used =            8  plain     mixing
     Exchange-correlation= SLA  PW   PBX  PBC
                           (   1   4   3   4   0   0   0)
     Hubbard projectors: ortho-atomic
     Hubbard parameters of DFT+U (Dudarev formulation) in eV:
     U(Ni1-3d) =  7.6000
     U(Ni2-3d) =  7.6000

     Internal variables: lda_plus_u = T, lda_plus_u_kind = 0

     celldm(1)=   9.671550  celldm(2)=   0.000000  celldm(3)=   0.000000
     celldm(4)=   0.833333  celldm(5)=   0.000000  celldm(6)=   0.000000

     crystal axes: (cart. coord. in units of alat)
               a(1) = (   0.288675  -0.166667   0.942809 )
               a(2) = (   0.000000   0.333333   0.942809 )
               a(3) = (  -0.288675  -0.166667   0.942809 )

     reciprocal axes: (cart. coord. in units 2 pi/alat)
               b(1) = (  1.732051 -1.000000  0.353553 )
               b(2) = (  0.000000  2.000000  0.353553 )
               b(3) = ( -1.732051 -1.000000  0.353553 )

     PseudoPot. # 1 for Ni read from file:
     ~/q-e/pseudo/ni_pbe_v1.4.uspp.F.UPF
     MD5 check sum: Not computed, couldn't open file
     Pseudo is Ultrasoft + core correction, Zval = 18.0
     Generated by new atomic code, or converted to UPF format
     Using radial grid of  865 points,  6 beta functions with:
                l(1) =   0
                l(2) =   0
                l(3) =   1
                l(4) =   1
                l(5) =   2
                l(6) =   2
     Q(r) pseudized with 10 coefficients,  rinner =    0.980   0.980   0.980
                                                       0.980   0.980

     PseudoPot. # 2 for Ni read from file:
     ~/q-e/pseudo/ni_pbe_v1.4.uspp.F.UPF
     MD5 check sum: Not computed, couldn't open file
     Pseudo is Ultrasoft + core correction, Zval = 18.0
     Generated by new atomic code, or converted to UPF format
     Using radial grid of  865 points,  6 beta functions with:
                l(1) =   0
                l(2) =   0
                l(3) =   1
                l(4) =   1
                l(5) =   2
                l(6) =   2
     Q(r) pseudized with 10 coefficients,  rinner =    0.980   0.980   0.980
                                                       0.980   0.980

     PseudoPot. # 3 for O  read from file:
     ~/q-e/pseudo/O.pbe-n-kjpaw_psl.0.1.UPF
     MD5 check sum: Not computed, couldn't open file
     Pseudo is Projector augmented-wave + core cor, Zval =  6.0
     Generated using "atomic" code by A. Dal Corso  v.5.0.99 svn rev. 10869
     Shape of augmentation charge: BESSEL
     Using radial grid of 1095 points,  4 beta functions with:
                l(1) =   0
                l(2) =   0
                l(3) =   1
                l(4) =   1
     Q(r) pseudized with 0 coefficients

     atomic species   valence    mass     pseudopotential
     Ni1              18.00    58.69340     Ni( 1.00)
     Ni2              18.00    58.69340     Ni( 1.00)
     O                 6.00    15.99900     O ( 1.00)

     Starting magnetic structure
     atomic species   magnetization
     Ni1             0.200
     Ni2            -0.200
     O               0.000

     12 Sym. Ops., with inversion, found

   Cartesian axes

     site n.     atom                  positions (alat units)
         1        Ni1    tau(   1) = (   0.0000000   0.0000000   0.0000000  )
         2        Ni2    tau(   2) = (   0.0000000   0.6666667   0.4714045  )
         3        O      tau(   3) = (   0.2886751  -0.1666667   0.2357023  )
         4        O      tau(   4) = (  -0.2886751   0.1666667  -0.2357023  )

     number of k points=    13
                       cart. coord. in units 2pi/alat
        k(    1) = (   0.0000000   0.0000000   0.0000000), wk =   0.0156250
        k(    2) = (  -0.4330127  -0.2500000   0.0883883), wk =   0.0937500
        k(    3) = (   0.8660254   0.5000000  -0.1767767), wk =   0.0468750
        k(    4) = (  -0.4330127   0.2500000   0.1767767), wk =   0.0937500
        k(    5) = (   0.8660254   1.0000000  -0.0883883), wk =   0.1875000
        k(    6) = (   0.4330127   0.7500000   0.0000000), wk =   0.0937500
        k(    7) = (   0.8660254  -0.5000000  -0.3535534), wk =   0.0468750
        k(    8) = (   0.0000000   0.0000000   0.2651650), wk =   0.0312500
        k(    9) = (   1.2990381   0.7500000   0.0000000), wk =   0.0937500
        k(   10) = (   0.8660254   0.5000000   0.0883883), wk =   0.0937500
        k(   11) = (   1.2990381  -0.7500000  -0.2651650), wk =   0.0937500
        k(   12) = (   0.8660254  -1.0000000  -0.1767767), wk =   0.0937500
        k(   13) = (   0.0000000   0.0000000  -0.5303301), wk =   0.0156250

     Check: negative core charge=   -0.000006
     Generating pointlists ...
     new r_m :   0.1684 (alat units)  1.6287 (a.u.) for type    1
     new r_m :   0.1684 (alat units)  1.6287 (a.u.) for type    2
     new r_m :   0.1684 (alat units)  1.6287 (a.u.) for type    3

     Initial potential from superposition of free atoms

     starting charge      44.0000, renormalised to      48.0000

     STARTING HUBBARD OCCUPATIONS:

     =================== HUBBARD OCCUPATIONS ===================
     ------------------------ ATOM    1 ------------------------
     Tr[ns(  1)] (up, down, total) =   5.00000  3.00000  8.00000
     Atomic magnetic moment for atom   1 =   2.00000
     SPIN  1
     eigenvalues:
       1.000  1.000  1.000  1.000  1.000
     eigenvectors (columns):
       1.000  0.000  0.000  0.000  0.000
       0.000  1.000  0.000  0.000  0.000
       0.000  0.000  1.000  0.000  0.000
       0.000  0.000  0.000  1.000  0.000
       0.000  0.000  0.000  0.000  1.000
     occupation matrix ns (before diag.):
       1.000  0.000  0.000  0.000  0.000
       0.000  1.000  0.000  0.000  0.000
       0.000  0.000  1.000  0.000  0.000
       0.000  0.000  0.000  1.000  0.000
       0.000  0.000  0.000  0.000  1.000
     SPIN  2
     eigenvalues:
       0.600  0.600  0.600  0.600  0.600
     eigenvectors (columns):
       1.000  0.000  0.000  0.000  0.000
       0.000  1.000  0.000  0.000  0.000
       0.000  0.000  1.000  0.000  0.000
       0.000  0.000  0.000  1.000  0.000
       0.000  0.000  0.000  0.000  1.000
     occupation matrix ns (before diag.):
       0.600  0.000  0.000  0.000  0.000
       0.000  0.600  0.000  0.000  0.000
       0.000  0.000  0.600  0.000  0.000
       0.000  0.000  0.000  0.600  0.000
       0.000  0.000  0.000  0.000  0.600
     ------------------------ ATOM    2 ------------------------
     Tr[ns(  2)] (up, down, total) =   3.00000  5.00000  8.00000
     Atomic magnetic moment for atom   2 =  -2.00000
     SPIN  1
     eigenvalues:
       0.600  0.600  0.600  0.600  0.600
     eigenvectors (columns):
       1.000  0.000  0.000  0.000  0.000
       0.000  1.000  0.000  0.000  0.000
       0.000  0.000  1.000  0.000  0.000
       0.000  0.000  0.000  1.000  0.000
       0.000  0.000  0.000  0.000  1.000
     occupation matrix ns (before diag.):
       0.600  0.000  0.000  0.000  0.000
       0.000  0.600  0.000  0.000  0.000
       0.000  0.000  0.600  0.000  0.000
       0.000  0.000  0.000  0.600  0.000
       0.000  0.000  0.000  0.000  0.600
     SPIN  2
     eigenvalues:
       1.000  1.000  1.000  1.000  1.000
     eigenvectors (columns):
       1.000  0.000  0.000  0.000  0.000
       0.000  1.000  0.000  0.000  0.000
       0.000  0.000  1.000  0.000  0.000
       0.000  0.000  0.000  1.000  0.000
       0.000  0.000  0.000  0.000  1.000
     occupation matrix ns (before diag.):
       1.000  0.000  0.000  0.000  0.000
       0.000  1.000  0.000  0.000  0.000
       0.000  0.000  1.000  0.000  0.000
       0.000  0.000  0.000  1.000  0.000
       0.000  0.000  0.000  0.000  1.000

     Number of occupied Hubbard levels =   16.0000

     Atomic wfc used for Hubbard projectors are orthogonalized

     Starting wfcs are   34 randomized atomic wfcs +    2 random wfcs
     Checking if some PAW data can be deallocated...

     Self-consistent Calculation

     iteration #  1     ecut=    50.00 Ry     beta= 0.30
     Davidson diagonalization with overlap
     ethr =  1.00E-02,  avg # of iterations =  5.3

[...]

     total energy              =    -756.62824576 Ry
     estimated scf accuracy    <      48.48679524 Ry

     total magnetization       =     0.00 Bohr mag/cell
     absolute magnetization    =     6.90 Bohr mag/cell

[...]

     total energy              =    -769.55830959 Ry
     estimated scf accuracy    <       0.00000002 Ry

[...]

     iteration # 16     ecut=    50.00 Ry     beta= 0.30
     Davidson diagonalization with overlap
     ethr =  4.75E-11,  avg # of iterations =  2.0

     Magnetic moment per site  (integrated on atomic sphere of radius R)
     atom   1 (R=0.168)  charge= 15.6111  magn=  1.7188
     atom   2 (R=0.168)  charge= 15.6111  magn= -1.7188
     atom   3 (R=0.168)  charge=  5.7471  magn=  0.0000
     atom   4 (R=0.168)  charge=  5.7471  magn=  0.0000

     End of self-consistent calculation

     =================== HUBBARD OCCUPATIONS ===================
     ------------------------ ATOM    1 ------------------------
     Tr[ns(  1)] (up, down, total) =   4.97444  3.21919  8.19363
     Atomic magnetic moment for atom   1 =   1.75526
     SPIN  1
     eigenvalues:
       0.995  0.995  0.995  0.995  0.995
     eigenvectors (columns):
       1.000 -0.000  0.000 -0.000  0.000
       0.000  0.137 -0.564 -0.700 -0.416
       0.000  0.564  0.137 -0.416  0.700
      -0.000 -0.792 -0.192 -0.296  0.499
      -0.000 -0.192  0.792 -0.499 -0.296
     occupation matrix ns (before diag.):
       0.995  0.000  0.000  0.000  0.000
       0.000  0.995  0.000 -0.000  0.000
       0.000  0.000  0.995  0.000 -0.000
       0.000 -0.000  0.000  0.995 -0.000
       0.000  0.000 -0.000 -0.000  0.995
     SPIN  2
     eigenvalues:
       0.123  0.123  0.991  0.991  0.991
     eigenvectors (columns):
      -0.000  0.000 -1.000  0.000  0.000
       0.710  0.403 -0.000 -0.138 -0.561
       0.403 -0.710 -0.000 -0.561  0.138
       0.285 -0.502  0.000  0.793 -0.195
       0.502  0.285  0.000  0.195  0.793
     occupation matrix ns (before diag.):
       0.991 -0.000 -0.000  0.000  0.000
      -0.000  0.413 -0.000  0.000 -0.409
      -0.000 -0.000  0.413 -0.409  0.000
       0.000  0.000 -0.409  0.701 -0.000
       0.000 -0.409  0.000 -0.000  0.701
     ------------------------ ATOM    2 ------------------------
     Tr[ns(  2)] (up, down, total) =   3.21919  4.97444  8.19363
     Atomic magnetic moment for atom   2 =  -1.75526
     SPIN  1
     eigenvalues:
       0.123  0.123  0.991  0.991  0.991
     eigenvectors (columns):
      -0.000  0.000 -1.000  0.000  0.000
       0.708  0.407 -0.000 -0.138 -0.561
       0.407 -0.708 -0.000 -0.561  0.138
       0.288 -0.501  0.000  0.793 -0.195
       0.501  0.288  0.000  0.195  0.793
     occupation matrix ns (before diag.):
       0.991 -0.000 -0.000  0.000  0.000
      -0.000  0.413 -0.000  0.000 -0.409
      -0.000 -0.000  0.413 -0.409  0.000
       0.000  0.000 -0.409  0.701 -0.000
       0.000 -0.409  0.000 -0.000  0.701
     SPIN  2
     eigenvalues:
       0.995  0.995  0.995  0.995  0.995
     eigenvectors (columns):
       1.000 -0.000  0.000 -0.000  0.000
       0.000  0.137 -0.564 -0.700 -0.417
       0.000  0.564  0.137 -0.417  0.700
      -0.000 -0.792 -0.192 -0.297  0.498
      -0.000 -0.192  0.792 -0.498 -0.297
     occupation matrix ns (before diag.):
       0.995  0.000  0.000  0.000  0.000
       0.000  0.995  0.000 -0.000  0.000
       0.000  0.000  0.995  0.000 -0.000
       0.000 -0.000  0.000  0.995 -0.000
       0.000  0.000 -0.000 -0.000  0.995

     Number of occupied Hubbard levels =   16.3873

 ------ SPIN UP ------------

          k = 0.0000 0.0000 0.0000 (  1479 PWs)   bands (ev):

   -90.9979 -88.5850 -51.3679 -51.3571 -51.3571 -49.0297 -49.0163 -49.0163
    -5.5351  -4.0554   5.3295   6.0523   6.0523   7.4372   7.4372   7.7858
     8.7901   8.7901  10.2445  11.9517  11.9517  11.9535  12.0706  12.0706
    15.9979  17.6208  17.6208  19.9197  24.6303  28.2689  28.2689  31.9647
    33.0569  33.0584  33.0584  35.4573

          k =-0.4330-0.2500 0.0884 (  1466 PWs)   bands (ev):

[...]

 ------ SPIN DOWN ----------

[...]

          k =-0.4330 0.2500 0.1768 (  1480 PWs)   bands (ev):

[...]

          k = 0.0000 0.0000-0.5303 (  1490 PWs)   bands (ev):

   -90.9979 -88.5850 -51.3679 -51.3571 -51.3571 -49.0298 -49.0163 -49.0163
    -4.8729  -4.8605   6.1170   6.1170   6.4882   7.3006   7.5020   7.5020
     8.6114   8.6114  10.0157  10.5069  11.3562  11.3562  12.8289  12.8289
    17.4357  17.4357  18.7430  18.8709  26.3913  26.5219  30.4964  30.4964
    30.6204  30.6204  34.5471  34.6205

     highest occupied, lowest unoccupied level (ev):    12.8289   15.9979

!    total energy              =    -769.55830964 Ry
     estimated scf accuracy    <          4.2E-10 Ry

     The total energy is the sum of the following terms:
     one-electron contribution =    -432.35931634 Ry
     hartree contribution      =     245.52034442 Ry
     xc contribution           =     -86.19868382 Ry
     ewald contribution        =    -477.64553572 Ry
     Hubbard energy            =       0.14991051 Ry
     one-center paw contrib.   =     -19.02502868 Ry

     total magnetization       =    -0.00 Bohr mag/cell
     absolute magnetization    =     3.70 Bohr mag/cell

     convergence has been achieved in  16 iterations

     Forces acting on atoms (cartesian axes, Ry/au):

     atom    1 type  1   force =     0.00000000    0.00000000    0.00000000
     atom    2 type  2   force =     0.00000000    0.00000000    0.00000000
     atom    3 type  3   force =     0.00000000    0.00000000    0.00000154
     atom    4 type  3   force =     0.00000000    0.00000000   -0.00000154

     Total force =     0.000002     Total SCF correction =     0.000002
     SCF correction compared to forces is large: reduce conv_thr to get better values

     Writing all to output data dir ./outdir/NiO_wU.save/

     General routines

     Parallel routines

     Hubbard U routines
                                        0.00s GPU  (       1 calls)

   This run was terminated on:   1:21: 3   3Dec2023

   JOB DONE.