     Program PWSCF v.7.2 starts on  8Jan2024 at 11:36:39

     Waiting for input...
     Reading input from standard input

     Current dimensions of program PWSCF are:
     Max number of different atomic species (ntypx) = 10
     Max number of k-points (npk) =  40000
     Max angular momentum in pseudopotentials (lmaxx) =  4
     file Bi.rel-pz-dn-rrkjus_psl.1.0.0.UPF: wavefunction(s)  5D 5D renormalized
     file Pd.rel-pz-n-rrkjus_psl.1.0.0.UPF: wavefunction(s)  4D 4D renormalized

     R & G space division:  proc/nbgrp/npool/nimage =       4
     Subspace diagonalization in iterative solution of the eigenvalue problem:
     a serial algorithm will be used

     Using Slab Decomposition

     bravais-lattice index     =            7
     lattice parameter (alat)  =       6.3999  a.u.
     unit-cell volume          =     512.6613 (a.u.)^3
     number of atoms/cell      =            3
     number of atomic types    =            2
     number of electrons       =        40.00
     number of Kohn-Sham states=           48
     kinetic-energy cutoff     =      60.0000  Ry
     charge density cutoff     =     540.0000  Ry
     scf convergence threshold =      1.0E-08
     mixing beta               =       0.1000
     number of iterations used =            8  plain     mixing
     Exchange-correlation= LDA
                           (   1   1   0   0   0   0   0)
     Non magnetic calculation with spin-orbit

     celldm(1)=   6.399898  celldm(2)=   0.000000  celldm(3)=   3.911483
     celldm(4)=   0.000000  celldm(5)=   0.000000  celldm(6)=   0.000000

     crystal axes: (cart. coord. in units of alat)
               a(1) = (   0.500000  -0.500000   1.955741 )
               a(2) = (   0.500000   0.500000   1.955741 )
               a(3) = (  -0.500000  -0.500000   1.955741 )

     reciprocal axes: (cart. coord. in units 2 pi/alat)
               b(1) = (  1.000000 -1.000000  0.000000 )
               b(2) = (  0.000000  1.000000  0.255658 )
               b(3) = ( -1.000000  0.000000  0.255658 )

     PseudoPot. # 1 for Bi read from file:
     ~/q-e/pseudo/pslibrary/rel-pz/PSEUDOPOTENTIALS/Bi.rel-pz-dn-rrkjus_psl.1.0.0.UPF
     MD5 check sum: Not computed, couldn't open file
     Pseudo is Ultrasoft + core correction, Zval = 15.0
     Generated using 'atomic' code by A. Dal Corso  v.7.2
     Using radial grid of 1283 points, 10 beta functions with:
                l(1) =   0
                l(2) =   0
                l(3) =   1
                l(4) =   1
                l(5) =   1
                l(6) =   1
                l(7) =   2
                l(8) =   2
                l(9) =   2
               l(10) =   2
     Q(r) pseudized with 0 coefficients

     PseudoPot. # 2 for Pd read from file:
     ~/q-e/pseudo/pslibrary/rel-pz/PSEUDOPOTENTIALS/Pd.rel-pz-n-rrkjus_psl.1.0.0.UPF
     MD5 check sum: Not computed, couldn't open file
     Pseudo is Ultrasoft + core correction, Zval = 10.0
     Generated using 'atomic' code by A. Dal Corso  v.7.2
     Using radial grid of 1235 points, 10 beta functions with:
                l(1) =   0
                l(2) =   0
                l(3) =   1
                l(4) =   1
                l(5) =   1
                l(6) =   1
                l(7) =   2
                l(8) =   2
                l(9) =   2
               l(10) =   2
     Q(r) pseudized with 0 coefficients

     atomic species   valence    mass     pseudopotential
     Bi               15.00   208.98000     Bi( 1.00)
     Pd               10.00   106.42000     Pd( 1.00)

     16 Sym. Ops., with inversion, found

                                    s                        frac. trans.

      isym =  1     identity

 cryst.   s( 1) = (     1          0          0      )
                  (     0          1          0      )
                  (     0          0          1      )

 cart.    s( 1) = (  1.0000000  0.0000000  0.0000000 )
                  (  0.0000000  1.0000000  0.0000000 )
                  (  0.0000000  0.0000000  1.0000000 )

      isym =  2     180 deg rotation - cart. axis [0,0,1]

[...]

      isym =  8      90 deg rotation - cart. axis [0,0,1]

[...]

      isym =  9     inversion

 cryst.   s( 9) = (    -1          0          0      )
                  (     0         -1          0      )
                  (     0          0         -1      )

 cart.    s( 9) = ( -1.0000000  0.0000000  0.0000000 )
                  (  0.0000000 -1.0000000  0.0000000 )
                  (  0.0000000  0.0000000 -1.0000000 )

      isym = 10     inv. 180 deg rotation - cart. axis [0,0,1]

 cryst.   s(10) = (     1         -1         -1      )
                  (     0          0         -1      )
                  (     0         -1          0      )

 cart.    s(10) = (  1.0000000  0.0000000  0.0000000 )
                  (  0.0000000  1.0000000  0.0000000 )
                  (  0.0000000  0.0000000 -1.0000000 )

[...]

      isym = 16     inv.  90 deg rotation - cart. axis [0,0,1]

 cryst.   s(16) = (     0         -1          0      )
                  (     1         -1         -1      )
                  (    -1          0          0      )

 cart.    s(16) = (  0.0000000  1.0000000  0.0000000 )
                  ( -1.0000000  0.0000000  0.0000000 )
                  (  0.0000000  0.0000000 -1.0000000 )

     double point group D_4h(4/mmm)
     there are 14 classes and  4 irreducible representations
     the character table:

       E     -E    2C4   -2C4   C2    2C2' 2C2'' i     -i    2S4   -2S4   s_h
                               -C2   -2C2' -2C2'                         -s_h
G_6+   2.00 -2.00  1.41 -1.41  0.00  0.00  0.00  2.00 -2.00  1.41 -1.41  0.00
G_7+   2.00 -2.00 -1.41  1.41  0.00  0.00  0.00  2.00 -2.00 -1.41  1.41  0.00
G_6-   2.00 -2.00  1.41 -1.41  0.00  0.00  0.00 -2.00  2.00 -1.41  1.41  0.00
G_7-   2.00 -2.00 -1.41  1.41  0.00  0.00  0.00 -2.00  2.00  1.41 -1.41  0.00

        2s_v  2s_d
       -2s_v -2s_d
G_6+   0.00  0.00
G_7+   0.00  0.00
G_6-   0.00  0.00
G_7-   0.00  0.00

     the symmetry operations in each class and the name of the first element:

     E             1
          identity
     -E           -1
          identity E
     2C4           7    8
           90 deg rotation - cart. axis [0,0,-1]
     -2C4         -7   -8
           90 deg rotation - cart. axis [0,0,-1] E
      C2  -C2      2   -2
          180 deg rotation - cart. axis [0,0,1]
      2C2'-2C2'    3   -3    4   -4
          180 deg rotation - cart. axis [0,1,0]
     2C2''-2C2'    5   -5   -6    6
          180 deg rotation - cart. axis [1,1,0]
     i             9
          inversion
     -i           -9
          inversion E
     2S4          15   16
          inv.  90 deg rotation - cart. axis [0,0,-1]
     -2S4        -15  -16
          inv.  90 deg rotation - cart. axis [0,0,-1] E
      s_h -s_h    10  -10
          inv. 180 deg rotation - cart. axis [0,0,1]
      2s_v-2s_v   11  -11   12  -12
          inv. 180 deg rotation - cart. axis [0,1,0]
      2s_d-2s_d   13  -13  -14   14
          inv. 180 deg rotation - cart. axis [1,1,0]

   Cartesian axes

     site n.     atom                  positions (alat units)
         1        Bi     tau(   1) = (   0.5000000   0.5000000   0.5175674  )
         2        Bi     tau(   2) = (   0.0000000   0.0000000   1.4381739  )
         3        Pd     tau(   3) = (   0.0000000   0.0000000   0.0000000  )

   Crystallographic axes

     site n.     atom                  positions (cryst. coord.)
         1        Bi     tau(   1) = (  0.0000000  0.6323200 -0.3676800  )
         2        Bi     tau(   2) = (  0.0000000  0.3676800  0.3676800  )
         3        Pd     tau(   3) = (  0.0000000  0.0000000  0.0000000  )

     number of k points=    13  Methfessel-Paxton smearing, width (Ry)=  0.0100
                       cart. coord. in units 2pi/alat
        k(    1) = (   0.0000000   0.0000000   0.0000000), wk =   0.0156250
        k(    2) = (  -0.2500000   0.0000000   0.0639144), wk =   0.1250000
        k(    3) = (   0.5000000   0.0000000  -0.1278288), wk =   0.0625000
        k(    4) = (  -0.2500000   0.2500000   0.1278288), wk =   0.1250000
        k(    5) = (   0.5000000   0.2500000  -0.0639144), wk =   0.2500000
        k(    6) = (   0.2500000   0.2500000   0.0000000), wk =   0.0625000
        k(    7) = (   0.5000000  -0.5000000  -0.2556575), wk =   0.0312500
        k(    8) = (   0.0000000   0.0000000   0.1278288), wk =   0.0312500
        k(    9) = (   0.7500000   0.0000000  -0.0639144), wk =   0.1250000
        k(   10) = (   0.5000000   0.0000000   0.0000000), wk =   0.0625000
        k(   11) = (   0.7500000  -0.7500000  -0.2556575), wk =   0.0625000
        k(   12) = (   0.5000000  -0.5000000  -0.1278288), wk =   0.0312500
        k(   13) = (   0.0000000   0.0000000  -0.2556575), wk =   0.0156250

                       cryst. coord.
        k(    1) = (   0.0000000   0.0000000   0.0000000), wk =   0.0156250
        k(    2) = (   0.0000000   0.0000000   0.2500000), wk =   0.1250000
        k(    3) = (   0.0000000   0.0000000  -0.5000000), wk =   0.0625000
        k(    4) = (   0.0000000   0.2500000   0.2500000), wk =   0.1250000
        k(    5) = (   0.0000000   0.2500000  -0.5000000), wk =   0.2500000
        k(    6) = (   0.0000000   0.2500000  -0.2500000), wk =   0.0625000
        k(    7) = (   0.0000000  -0.5000000  -0.5000000), wk =   0.0312500
        k(    8) = (   0.2500000   0.2500000   0.2500000), wk =   0.0312500
        k(    9) = (   0.2500000   0.2500000  -0.5000000), wk =   0.1250000
        k(   10) = (   0.2500000   0.2500000  -0.2500000), wk =   0.0625000
        k(   11) = (   0.2500000  -0.5000000  -0.5000000), wk =   0.0625000
        k(   12) = (   0.2500000  -0.2500000  -0.2500000), wk =   0.0312500
        k(   13) = (  -0.5000000  -0.5000000  -0.5000000), wk =   0.0156250

     Initial potential from superposition of free atoms

     starting charge      39.9983, renormalised to      40.0000
     Starting wfcs are   54 randomized atomic wfcs

     Self-consistent Calculation

     iteration #  1     ecut=    60.00 Ry     beta= 0.10
     Davidson diagonalization with overlap

     ethr =  1.00E-02,  avg # of iterations =  3.0

     Threshold (ethr) on eigenvalues was too large:
     Diagonalizing with lowered threshold

     Davidson diagonalization with overlap

[...]

     total energy              =    -377.17199855 Ry
     estimated scf accuracy    <       0.06523307 Ry

[...]

     total energy              =    -377.16067501 Ry
     estimated scf accuracy    <       0.00000001 Ry

     iteration # 15     ecut=    60.00 Ry     beta= 0.10
     Davidson diagonalization with overlap

     ethr =  2.98E-11,  avg # of iterations =  2.0

     End of self-consistent calculation

          k = 0.0000 0.0000 0.0000 (  4023 PWs)   bands (ev):

   -11.9954 -11.9954 -11.9931 -11.9931 -11.9882 -11.9882 -11.9613 -11.9613
    -9.0508  -9.0508  -9.0490  -9.0490  -9.0243  -9.0243  -8.9744  -8.9744
    -8.9203  -8.9203  -8.9137  -8.9137  -0.8878  -0.8878   0.8359   0.8359
     6.2097   6.2097   8.4388   8.4388   8.8995   8.8995   9.3169   9.3169
     9.7287   9.7287   9.7988   9.7988  12.4282  12.4282  14.5963  14.5963
    15.0103  15.0103  15.5040  15.5040  16.5240  16.5240  16.8055  16.8055

     occupation numbers
     1.0000   1.0000   1.0000   1.0000   1.0000   1.0000   1.0000   1.0000
     1.0000   1.0000   1.0000   1.0000   1.0000   1.0000   1.0000   1.0000
     1.0000   1.0000   1.0000   1.0000   1.0000   1.0000   1.0000   1.0000
     1.0000   1.0000   1.0000   1.0000   1.0000   1.0000   1.0000   1.0000
     1.0000   1.0000   1.0000   1.0000  -0.0001  -0.0001  -0.0000  -0.0000
    -0.0000  -0.0000  -0.0000  -0.0000  -0.0000  -0.0000  -0.0000  -0.0000

          k =-0.2500 0.0000 0.0639 (  4015 PWs)   bands (ev):

[...]

          k =-0.2500 0.2500 0.1278 (  4032 PWs)   bands (ev):

[...]

          k = 0.0000 0.0000-0.2557 (  4006 PWs)   bands (ev):

   -11.9953 -11.9953 -11.9931 -11.9931 -11.9781 -11.9781 -11.9711 -11.9711
    -9.0512  -9.0512  -9.0496  -9.0496  -9.0149  -9.0149  -8.9821  -8.9821
    -8.9309  -8.9309  -8.9016  -8.9016  -0.3201  -0.3201  -0.0714  -0.0714
     7.8136   7.8136   8.4392   8.4392   8.9733   8.9733   9.3364   9.3364
     9.5155   9.5155   9.8008   9.8008  10.6247  10.6247  13.2474  13.2474
    14.7640  14.7640  15.4692  15.4692  17.9073  17.9073  18.3893  18.3893

     occupation numbers
     1.0000   1.0000   1.0000   1.0000   1.0000   1.0000   1.0000   1.0000
     1.0000   1.0000   1.0000   1.0000   1.0000   1.0000   1.0000   1.0000
     1.0000   1.0000   1.0000   1.0000   1.0000   1.0000   1.0000   1.0000
     1.0000   1.0000   1.0000   1.0000   1.0000   1.0000   1.0000   1.0000
     1.0000   1.0000   1.0000   1.0000   1.0000   1.0000  -0.0000  -0.0000
    -0.0000  -0.0000  -0.0000  -0.0000  -0.0000  -0.0000  -0.0000  -0.0000

     the Fermi energy is    12.0191 ev

!    total energy              =    -377.16067505 Ry
     estimated scf accuracy    <          9.6E-09 Ry
     smearing contrib. (-TS)   =      -0.00020328 Ry
     internal energy E=F+TS    =    -377.16047177 Ry

     The total energy is F=E-TS. E is the sum of the following terms:
     one-electron contribution =     -94.60250739 Ry
     hartree contribution      =      77.30553659 Ry
     xc contribution           =     -85.12911916 Ry
     ewald contribution        =    -274.73438182 Ry

     convergence has been achieved in  15 iterations

     Writing all to output data dir ./Bi2Pd/Bi2Pd.save/

     General routines

     Parallel routines

   This run was terminated on:  11:38:38   8Jan2024

   JOB DONE.