     Program PWSCF v.7.2 starts on 30Dec2023 at 22: 0:24

     Waiting for input...
     Reading input from standard input

     Current dimensions of program PWSCF are:
     Max number of different atomic species (ntypx) = 10
     Max number of k-points (npk) =  40000
     Max angular momentum in pseudopotentials (lmaxx) =  4
     file La.pz-spfn-kjpaw_psl.1.0.0.UPF: wavefunction(s)  5S 5D 4F renormalized
     file Cu.pz-dn-rrkjus_psl.1.0.0.UPF: wavefunction(s)  3D renormalized
     Found identity + ( -0.5000 -0.5000 -0.5000) symmetry
     This is a supercell, fractional translations are disabled

     R & G space division:  proc/nbgrp/npool/nimage =       4
     Subspace diagonalization in iterative solution of the eigenvalue problem:
     a serial algorithm will be used

     Using Slab Decomposition

     bravais-lattice index     =            6
     lattice parameter (alat)  =       7.2070  a.u.
     unit-cell volume          =    1298.0901 (a.u.)^3
     number of atoms/cell      =           14
     number of atomic types    =            3
     number of electrons       =       114.00
     number of Kohn-Sham states=           68
     kinetic-energy cutoff     =      90.0000  Ry
     charge density cutoff     =     720.0000  Ry
     scf convergence threshold =      1.0E-08
     mixing beta               =       0.0500
     number of iterations used =            8  plain     mixing
     Exchange-correlation= LDA
                           (   1   1   0   0   0   0   0)

     celldm(1)=   7.207037  celldm(2)=   0.000000  celldm(3)=   3.467644
     celldm(4)=   0.000000  celldm(5)=   0.000000  celldm(6)=   0.000000

     crystal axes: (cart. coord. in units of alat)
               a(1) = (   1.000000   0.000000   0.000000 )
               a(2) = (   0.000000   1.000000   0.000000 )
               a(3) = (   0.000000   0.000000   3.467644 )

     reciprocal axes: (cart. coord. in units 2 pi/alat)
               b(1) = (  1.000000  0.000000  0.000000 )
               b(2) = (  0.000000  1.000000  0.000000 )
               b(3) = (  0.000000  0.000000  0.288380 )

     PseudoPot. # 1 for La read from file:
     ~/q-e/pslibrary/pz/PSEUDOPOTENTIALS/La.pz-spfn-kjpaw_psl.1.0.0.UPF
     MD5 check sum: Not computed, couldn't open file
     Pseudo is Projector augmented-wave + core cor, Zval = 11.0
     Generated using 'atomic' code by A. Dal Corso  v.7.2
     Shape of augmentation charge: PSQ
     Using radial grid of 1253 points,  8 beta functions with:
                l(1) =   0
                l(2) =   0
                l(3) =   1
                l(4) =   1
                l(5) =   2
                l(6) =   2
                l(7) =   3
                l(8) =   3
     Q(r) pseudized with 0 coefficients

     PseudoPot. # 2 for Cu read from file:
     ~/q-e/pslibrary/pz/PSEUDOPOTENTIALS/Cu.pz-dn-rrkjus_psl.1.0.0.UPF
     MD5 check sum: Not computed, couldn't open file
     Pseudo is Ultrasoft + core correction, Zval = 11.0
     Generated using 'atomic' code by A. Dal Corso  v.7.2
     Using radial grid of 1199 points,  6 beta functions with:
                l(1) =   0
                l(2) =   0
                l(3) =   1
                l(4) =   1
                l(5) =   2
                l(6) =   2
     Q(r) pseudized with 0 coefficients

     PseudoPot. # 3 for O  read from file:
     ~/q-e/pslibrary/pz/PSEUDOPOTENTIALS/O.pz-n-rrkjus_psl.1.0.0.UPF
     MD5 check sum: Not computed, couldn't open file
     Pseudo is Ultrasoft + core correction, Zval =  6.0
     Generated using 'atomic' code by A. Dal Corso  v.7.2
     Using radial grid of 1095 points,  4 beta functions with:
                l(1) =   0
                l(2) =   0
                l(3) =   1
                l(4) =   1
     Q(r) pseudized with 0 coefficients

     atomic species   valence    mass     pseudopotential
     La               11.00   138.91000     La( 1.00)
     Cu               11.00    63.54600     Cu( 1.00)
     O                 6.00    15.99900     O ( 1.00)

     16 Sym. Ops., with inversion, found

                                    s                        frac. trans.

      isym =  1     identity

 cryst.   s( 1) = (     1          0          0      )
                  (     0          1          0      )
                  (     0          0          1      )

 cart.    s( 1) = (  1.0000000  0.0000000  0.0000000 )
                  (  0.0000000  1.0000000  0.0000000 )
                  (  0.0000000  0.0000000  1.0000000 )

      isym =  2     180 deg rotation - cart. axis [0,0,1]

[...]

      isym =  8      90 deg rotation - cart. axis [0,0,1]

[...]

      isym =  9     inversion

 cryst.   s( 9) = (    -1          0          0      )
                  (     0         -1          0      )
                  (     0          0         -1      )

 cart.    s( 9) = ( -1.0000000  0.0000000  0.0000000 )
                  (  0.0000000 -1.0000000  0.0000000 )
                  (  0.0000000  0.0000000 -1.0000000 )

      isym = 10     inv. 180 deg rotation - cart. axis [0,0,1]

 cryst.   s(10) = (     1          0          0      )
                  (     0          1          0      )
                  (     0          0         -1      )

 cart.    s(10) = (  1.0000000  0.0000000  0.0000000 )
                  (  0.0000000  1.0000000  0.0000000 )
                  (  0.0000000  0.0000000 -1.0000000 )

[...]

      isym = 16     inv.  90 deg rotation - cart. axis [0,0,1]

 cryst.   s(16) = (     0         -1          0      )
                  (     1          0          0      )
                  (     0          0         -1      )

 cart.    s(16) = (  0.0000000  1.0000000  0.0000000 )
                  ( -1.0000000  0.0000000  0.0000000 )
                  (  0.0000000  0.0000000 -1.0000000 )

     point group D_4h(4/mmm)
     there are 10 classes
     the character table:

       E     2C4   C2    2C2'  2C2'' i     2S4   s_h   2s_v  2s_d
A_1g   1.00  1.00  1.00  1.00  1.00  1.00  1.00  1.00  1.00  1.00
A_2g   1.00  1.00  1.00 -1.00 -1.00  1.00  1.00  1.00 -1.00 -1.00
B_1g   1.00 -1.00  1.00  1.00 -1.00  1.00 -1.00  1.00  1.00 -1.00
B_2g   1.00 -1.00  1.00 -1.00  1.00  1.00 -1.00  1.00 -1.00  1.00
E_g    2.00  0.00 -2.00  0.00  0.00  2.00  0.00 -2.00  0.00  0.00
A_1u   1.00  1.00  1.00  1.00  1.00 -1.00 -1.00 -1.00 -1.00 -1.00
A_2u   1.00  1.00  1.00 -1.00 -1.00 -1.00 -1.00 -1.00  1.00  1.00
B_1u   1.00 -1.00  1.00  1.00 -1.00 -1.00  1.00 -1.00 -1.00  1.00
B_2u   1.00 -1.00  1.00 -1.00  1.00 -1.00  1.00 -1.00  1.00 -1.00
E_u    2.00  0.00 -2.00  0.00  0.00 -2.00  0.00  2.00  0.00  0.00

     the symmetry operations in each class and the name of the first element:

     E        1
          identity
     2C4      7    8
           90 deg rotation - cart. axis [0,0,-1]
     C2       2
          180 deg rotation - cart. axis [0,0,1]
     2C2'     3    4
          180 deg rotation - cart. axis [0,1,0]
     2C2''    5    6
          180 deg rotation - cart. axis [1,1,0]
     i        9
          inversion
     2S4     15   16
          inv.  90 deg rotation - cart. axis [0,0,-1]
     s_h     10
          inv. 180 deg rotation - cart. axis [0,0,1]
     2s_v    11   12
          inv. 180 deg rotation - cart. axis [0,1,0]
     2s_d    13   14
          inv. 180 deg rotation - cart. axis [1,1,0]

   Cartesian axes

     site n.     atom                  positions (alat units)
         1        La     tau(   1) = (   0.0000000   0.0000000   1.2514380  )
         2        La     tau(   2) = (   0.5000000   0.5000000   0.4823839  )
         3        La     tau(   3) = (   0.5000000   0.5000000   2.9852599  )
         4        La     tau(   4) = (   0.0000000   0.0000000   2.2162058  )
         5        Cu     tau(   5) = (   0.0000000   0.0000000   0.0000000  )
         6        Cu     tau(   6) = (   0.5000000   0.5000000   1.7338219  )
         7        O      tau(   7) = (   0.0000000   0.5000000   0.0000000  )
         8        O      tau(   8) = (   0.5000000   0.0000000   0.0000000  )
         9        O      tau(   9) = (   0.0000000   0.0000000   0.6457793  )
        10        O      tau(  10) = (   0.5000000   0.5000000   1.0880426  )
        11        O      tau(  11) = (   0.5000000   0.0000000   1.7338219  )
        12        O      tau(  12) = (   0.0000000   0.5000000   1.7338219  )
        13        O      tau(  13) = (   0.5000000   0.5000000   2.3796012  )
        14        O      tau(  14) = (   0.0000000   0.0000000   2.8218645  )

   Crystallographic axes

     site n.     atom                  positions (cryst. coord.)
         1        La     tau(   1) = (  0.0000000  0.0000000  0.3608900  )
         2        La     tau(   2) = (  0.5000000  0.5000000  0.1391100  )
         3        La     tau(   3) = (  0.5000000  0.5000000  0.8608900  )
         4        La     tau(   4) = (  0.0000000  0.0000000  0.6391100  )
         5        Cu     tau(   5) = (  0.0000000  0.0000000  0.0000000  )
         6        Cu     tau(   6) = (  0.5000000  0.5000000  0.5000000  )
         7        O      tau(   7) = (  0.0000000  0.5000000  0.0000000  )
         8        O      tau(   8) = (  0.5000000  0.0000000  0.0000000  )
         9        O      tau(   9) = (  0.0000000  0.0000000  0.1862300  )
        10        O      tau(  10) = (  0.5000000  0.5000000  0.3137700  )
        11        O      tau(  11) = (  0.5000000  0.0000000  0.5000000  )
        12        O      tau(  12) = (  0.0000000  0.5000000  0.5000000  )
        13        O      tau(  13) = (  0.5000000  0.5000000  0.6862300  )
        14        O      tau(  14) = (  0.0000000  0.0000000  0.8137700  )

     number of k points=     6  Methfessel-Paxton smearing, width (Ry)=  0.0100
                       cart. coord. in units 2pi/alat
        k(    1) = (   0.0000000   0.0000000   0.0000000), wk =   0.2500000
        k(    2) = (   0.0000000   0.0000000  -0.1441901), wk =   0.2500000
        k(    3) = (   0.0000000  -0.5000000   0.0000000), wk =   0.5000000
        k(    4) = (   0.0000000  -0.5000000  -0.1441901), wk =   0.5000000
        k(    5) = (  -0.5000000  -0.5000000   0.0000000), wk =   0.2500000
        k(    6) = (  -0.5000000  -0.5000000  -0.1441901), wk =   0.2500000

                       cryst. coord.
        k(    1) = (   0.0000000   0.0000000   0.0000000), wk =   0.2500000
        k(    2) = (   0.0000000   0.0000000  -0.5000000), wk =   0.2500000
        k(    3) = (   0.0000000  -0.5000000   0.0000000), wk =   0.5000000
        k(    4) = (   0.0000000  -0.5000000  -0.5000000), wk =   0.5000000
        k(    5) = (  -0.5000000  -0.5000000   0.0000000), wk =   0.2500000
        k(    6) = (  -0.5000000  -0.5000000  -0.5000000), wk =   0.2500000

     Initial potential from superposition of free atoms

     starting charge     113.8936, renormalised to     114.0000
     Starting wfcs are  130 randomized atomic wfcs
     Checking if some PAW data can be deallocated...

     Self-consistent Calculation

     iteration #  1     ecut=    90.00 Ry     beta= 0.05
     Davidson diagonalization with overlap

     ethr =  1.00E-02,  avg # of iterations =  2.0

     total energy              =   -2287.36373045 Ry
     estimated scf accuracy    <       4.65390453 Ry

[...]

     c_bands:  2 eigenvalues not converged
     c_bands:  2 eigenvalues not converged
     c_bands:  1 eigenvalues not converged
     ethr =  6.34E-06,  avg # of iterations = 18.8

[...]

     c_bands:  3 eigenvalues not converged
     ethr =  3.33E-08,  avg # of iterations =  5.0

[...]

     total energy              =   -2286.85822057 Ry
     estimated scf accuracy    <       0.00000001 Ry

     iteration # 49     ecut=    90.00 Ry     beta= 0.05
     Davidson diagonalization with overlap

     ethr =  1.06E-11,  avg # of iterations =  4.8

     End of self-consistent calculation

          k = 0.0000 0.0000 0.0000 ( 18751 PWs)   bands (ev):

   -19.9843 -19.9244 -19.8867 -19.8246  -7.4734  -7.3842  -6.0797  -5.7945
    -5.5015  -5.5014  -5.3493  -5.0756  -3.4914  -3.4914  -3.3877  -3.3877
    -3.3084  -3.3084  -3.1967  -3.1967  -2.8341  -2.4866  -2.4753  -1.9278
     6.5726   6.5726   6.6187   6.6187   7.0849   7.6261   7.7526   8.0807
     8.1298   8.3179   8.6590   8.6590   8.8653   8.8653   8.9666   9.0566
     9.0568   9.0832   9.0832   9.2534   9.2534   9.3957   9.3957   9.8780
     9.8780   9.8851   9.8851   9.9007   9.9007  10.0415  10.0431  10.3080
    10.3384  10.7207  12.5955  13.2852  13.9583  14.1416  14.4038  14.7222
    14.7324  14.8779  14.9538  14.9554

     occupation numbers
     1.0000   1.0000   1.0000   1.0000   1.0000   1.0000   1.0000   1.0000
     1.0000   1.0000   1.0000   1.0000   1.0000   1.0000   1.0000   1.0000
     1.0000   1.0000   1.0000   1.0000   1.0000   1.0000   1.0000   1.0000
     1.0000   1.0000   1.0000   1.0000   1.0000   1.0000   1.0000   1.0000
     1.0000   1.0000   1.0000   1.0000   1.0000   1.0000   1.0000   1.0000
     1.0000   1.0000   1.0000   1.0000   1.0000   1.0000   1.0000   1.0000
     1.0000   1.0000   1.0000   1.0000   1.0000   1.0000   1.0000   1.0000
     1.0000   1.0000  -0.0000  -0.0000  -0.0000  -0.0000  -0.0000  -0.0000
    -0.0000  -0.0000  -0.0000  -0.0000

[...]

          k = 0.0000-0.5000-0.1442 ( 18672 PWs)   bands (ev):

[...]

          k =-0.5000-0.5000 0.0000 ( 18728 PWs)   bands (ev):

[...]

          k =-0.5000-0.5000-0.1442 ( 18752 PWs)   bands (ev):

   -19.7959 -19.7959 -19.7500 -19.7499  -6.4375  -6.4375  -6.4375  -6.4375
    -5.7663  -5.7663  -5.6691  -5.6691  -4.0054  -4.0054  -4.0054  -4.0054
    -3.2002  -3.2002  -3.2002  -3.2002  -3.0443  -3.0443  -2.5322  -2.5322
     4.2721   4.2721   5.9661   5.9661   6.2037   6.2037   7.3480   7.3480
     7.3481   7.3481   8.2051   8.2051   8.4925   8.4925   8.4925   8.4925
     8.8035   8.8035   9.7392   9.7392   9.7392   9.7392  10.2111  10.2111
    10.7981  10.7981  10.8200  10.8200  10.8200  10.8200  11.0618  11.0618
    14.0655  14.0655  14.7364  14.7368  14.7431  14.7431  14.7437  14.7454
    14.8317  14.8319  14.8329  14.8333

     occupation numbers
     1.0000   1.0000   1.0000   1.0000   1.0000   1.0000   1.0000   1.0000
     1.0000   1.0000   1.0000   1.0000   1.0000   1.0000   1.0000   1.0000
     1.0000   1.0000   1.0000   1.0000   1.0000   1.0000   1.0000   1.0000
     1.0000   1.0000   1.0000   1.0000   1.0000   1.0000   1.0000   1.0000
     1.0000   1.0000   1.0000   1.0000   1.0000   1.0000   1.0000   1.0000
     1.0000   1.0000   1.0000   1.0000   1.0000   1.0000   1.0000   1.0000
     1.0000   1.0000   1.0000   1.0000   1.0000   1.0000   1.0000   1.0000
    -0.0000  -0.0000  -0.0000  -0.0000  -0.0000  -0.0000  -0.0000  -0.0000
    -0.0000  -0.0000  -0.0000  -0.0000

     the Fermi energy is    11.8022 ev

!    total energy              =   -2286.85821986 Ry
     estimated scf accuracy    <          5.4E-09 Ry
     smearing contrib. (-TS)   =      -0.00280202 Ry
     internal energy E=F+TS    =   -2286.85541783 Ry

     The total energy is F=E-TS. E is the sum of the following terms:
     one-electron contribution =    -170.35473817 Ry
     hartree contribution      =     185.95833818 Ry
     xc contribution           =    -434.60260908 Ry
     ewald contribution        =    -580.71355183 Ry
     one-center paw contrib.   =   -1287.14285694 Ry
      -> PAW hartree energy AE =     135.64677714 Ry
      -> PAW hartree energy PS =    -134.79319029 Ry
      -> PAW xc energy AE      =   -1569.49590304 Ry
      -> PAW xc energy PS      =     281.49945926 Ry
      -> total E_H with PAW    =     186.81192503 Ry
      -> total E_XC with PAW   =   -1722.59905287 Ry

     convergence has been achieved in  49 iterations

     Writing all to output data dir ./La2CuO4/La2CuO4.save/

     General routines

     Parallel routines

     PAW routines

   This run was terminated on:  22: 5: 7  30Dec2023

   JOB DONE.