     Program PWSCF v.7.2 starts on  1Jan2024 at 18:37:55

     Waiting for input...
     Reading input from standard input
Warning: card &CELL ignored
Warning: card / ignored

     Current dimensions of program PWSCF are:
     Max number of different atomic species (ntypx) = 10
     Max number of k-points (npk) =  40000
     Max angular momentum in pseudopotentials (lmaxx) =  4
     Found identity + ( -0.5000 -0.5000  0.0000) symmetry
     This is a supercell, fractional translations are disabled

     R & G space division:  proc/nbgrp/npool/nimage =       4
     Subspace diagonalization in iterative solution of the eigenvalue problem:
     one sub-group per band group will be used

     Using Slab Decomposition

     bravais-lattice index     =            6
     lattice parameter (alat)  =      14.3459  a.u.
     unit-cell volume          =    4502.1906 (a.u.)^3
     number of atoms/cell      =           48
     number of atomic types    =            6
     number of electrons       =       496.00
     number of Kohn-Sham states=          298
     kinetic-energy cutoff     =      60.0000  Ry
     charge density cutoff     =     540.0000  Ry
     scf convergence threshold =      1.0E-08
     mixing beta               =       0.1000
     number of iterations used =            8  plain     mixing
     Exchange-correlation= SLA  PW   PBE  PBE
                           (   1   4   3   4   0   0   0)
     Hubbard projectors: ortho-atomic
     Hubbard parameters of DFT+U (Dudarev formulation) in eV:
     U(Cu1-3d) =  2.5000
     U(Cu2-3d) =  2.5000

     Internal variables: lda_plus_u = T, lda_plus_u_kind = 0

     celldm(1)=  14.345919  celldm(2)=   0.000000  celldm(3)=   1.524891
     celldm(4)=   0.000000  celldm(5)=   0.000000  celldm(6)=   0.000000

     crystal axes: (cart. coord. in units of alat)
               a(1) = (   1.000000   0.000000   0.000000 )
               a(2) = (   0.000000   1.000000   0.000000 )
               a(3) = (   0.000000   0.000000   1.524891 )

     reciprocal axes: (cart. coord. in units 2 pi/alat)
               b(1) = (  1.000000  0.000000  0.000000 )
               b(2) = (  0.000000  1.000000  0.000000 )
               b(3) = (  0.000000  0.000000  0.655785 )

     PseudoPot. # 1 for Y  read from file:
     ~/q-e/pseudo/all_pbe_UPF_v1.5/y_pbe_v1.4.uspp.F.UPF
     MD5 check sum: Not computed, couldn't open file
     Pseudo is Ultrasoft + core correction, Zval = 11.0
     Generated by new atomic code, or converted to UPF format
     Using radial grid of  885 points,  6 beta functions with:
                l(1) =   0
                l(2) =   0
                l(3) =   1
                l(4) =   1
                l(5) =   2
                l(6) =   2
     Q(r) pseudized with  8 coefficients,  rinner =    1.200   1.200   1.200
                                                       1.200   1.200

     PseudoPot. # 2 for Ba read from file:
     ~/q-e/pseudo/all_pbe_UPF_v1.5/ba_pbe_v1.uspp.F.UPF
     MD5 check sum: Not computed, couldn't open file
     Pseudo is Ultrasoft + core correction, Zval = 10.0
     Generated by new atomic code, or converted to UPF format
     Using radial grid of  907 points,  7 beta functions with:
                l(1) =   0
                l(2) =   0
                l(3) =   1
                l(4) =   1
                l(5) =   2
                l(6) =   2
                l(7) =   3
     Q(r) pseudized with  6 coefficients,  rinner =    1.700   1.700   1.700
                                                       1.700   1.700   1.700
                                                       1.700

     PseudoPot. # 3 for Cu read from file:
     ~/q-e/pseudo/all_pbe_UPF_v1.5/cu_pbe_v1.2.uspp.F.UPF
     MD5 check sum: Not computed, couldn't open file
     Pseudo is Ultrasoft + core correction, Zval = 19.0
     Generated by new atomic code, or converted to UPF format
     Using radial grid of  867 points,  6 beta functions with:
                l(1) =   0
                l(2) =   0
                l(3) =   1
                l(4) =   1
                l(5) =   2
                l(6) =   2
     Q(r) pseudized with  8 coefficients,  rinner =    1.150   1.150   1.150
                                                       1.150   1.150

[...]

     PseudoPot. # 5 for Cu read from file:
     ~/q-e/pseudo/all_pbe_UPF_v1.5/cu_pbe_v1.2.uspp.F.UPF
     MD5 check sum: Not computed, couldn't open file
     Pseudo is Ultrasoft + core correction, Zval = 19.0
     Generated by new atomic code, or converted to UPF format
     Using radial grid of  867 points,  6 beta functions with:
                l(1) =   0
                l(2) =   0
                l(3) =   1
                l(4) =   1
                l(5) =   2
                l(6) =   2
     Q(r) pseudized with  8 coefficients,  rinner =    1.150   1.150   1.150
                                                       1.150   1.150

     PseudoPot. # 6 for O  read from file:
     ~/q-e/pseudo/all_pbe_UPF_v1.5/o_pbe_v1.2.uspp.F.UPF
     MD5 check sum: Not computed, couldn't open file
     Pseudo is Ultrasoft + core correction, Zval =  6.0
     Generated by new atomic code, or converted to UPF format
     Using radial grid of  737 points,  5 beta functions with:
                l(1) =   0
                l(2) =   0
                l(3) =   1
                l(4) =   1
                l(5) =   2
     Q(r) pseudized with  8 coefficients,  rinner =    0.900   0.900   0.900
                                                       0.900   0.900

     atomic species   valence    mass     pseudopotential
     Y                11.00    88.90584     Y ( 1.00)
     Ba               10.00   137.32700     Ba( 1.00)
     Cu               19.00    63.54600     Cu( 1.00)
     Cu1              19.00    63.54600     Cu( 1.00)
     Cu2              19.00    63.54600     Cu( 1.00)
     O                 6.00    15.99900     O ( 1.00)

     Starting magnetic structure
     atomic species   magnetization
     Y               0.000
     Ba              0.000
     Cu              0.000
     Cu1             0.100
     Cu2            -0.100
     O               0.000

     16 Sym. Ops., with inversion, found

                                    s                        frac. trans.

      isym =  1     identity

 cryst.   s( 1) = (     1          0          0      )
                  (     0          1          0      )
                  (     0          0          1      )

 cart.    s( 1) = (  1.0000000  0.0000000  0.0000000 )
                  (  0.0000000  1.0000000  0.0000000 )
                  (  0.0000000  0.0000000  1.0000000 )

      isym =  2     180 deg rotation - cart. axis [0,0,1]

[...]

      isym =  8      90 deg rotation - cart. axis [0,0,1]

[...]

      isym =  9     inversion

 cryst.   s( 9) = (    -1          0          0      )
                  (     0         -1          0      )
                  (     0          0         -1      )

 cart.    s( 9) = ( -1.0000000  0.0000000  0.0000000 )
                  (  0.0000000 -1.0000000  0.0000000 )
                  (  0.0000000  0.0000000 -1.0000000 )

      isym = 10     inv. 180 deg rotation - cart. axis [0,0,1]

 cryst.   s(10) = (     1          0          0      )
                  (     0          1          0      )
                  (     0          0         -1      )

 cart.    s(10) = (  1.0000000  0.0000000  0.0000000 )
                  (  0.0000000  1.0000000  0.0000000 )
                  (  0.0000000  0.0000000 -1.0000000 )

[...]

      isym = 16     inv.  90 deg rotation - cart. axis [0,0,1]

 cryst.   s(16) = (     0         -1          0      )
                  (     1          0          0      )
                  (     0          0         -1      )

 cart.    s(16) = (  0.0000000  1.0000000  0.0000000 )
                  ( -1.0000000  0.0000000  0.0000000 )
                  (  0.0000000  0.0000000 -1.0000000 )

     point group D_4h(4/mmm)
     there are 10 classes
     the character table:

       E     2C4   C2    2C2'  2C2'' i     2S4   s_h   2s_v  2s_d
A_1g   1.00  1.00  1.00  1.00  1.00  1.00  1.00  1.00  1.00  1.00
A_2g   1.00  1.00  1.00 -1.00 -1.00  1.00  1.00  1.00 -1.00 -1.00
B_1g   1.00 -1.00  1.00  1.00 -1.00  1.00 -1.00  1.00  1.00 -1.00
B_2g   1.00 -1.00  1.00 -1.00  1.00  1.00 -1.00  1.00 -1.00  1.00
E_g    2.00  0.00 -2.00  0.00  0.00  2.00  0.00 -2.00  0.00  0.00
A_1u   1.00  1.00  1.00  1.00  1.00 -1.00 -1.00 -1.00 -1.00 -1.00
A_2u   1.00  1.00  1.00 -1.00 -1.00 -1.00 -1.00 -1.00  1.00  1.00
B_1u   1.00 -1.00  1.00  1.00 -1.00 -1.00  1.00 -1.00 -1.00  1.00
B_2u   1.00 -1.00  1.00 -1.00  1.00 -1.00  1.00 -1.00  1.00 -1.00
E_u    2.00  0.00 -2.00  0.00  0.00 -2.00  0.00  2.00  0.00  0.00

     the symmetry operations in each class and the name of the first element:

     E        1
          identity
     2C4      7    8
           90 deg rotation - cart. axis [0,0,-1]
     C2       2
          180 deg rotation - cart. axis [0,0,1]
     2C2'     3    4
          180 deg rotation - cart. axis [0,1,0]
     2C2''    5    6
          180 deg rotation - cart. axis [1,1,0]
     i        9
          inversion
     2S4     15   16
          inv.  90 deg rotation - cart. axis [0,0,-1]
     s_h     10
          inv. 180 deg rotation - cart. axis [0,0,1]
     2s_v    11   12
          inv. 180 deg rotation - cart. axis [0,1,0]
     2s_d    13   14
          inv. 180 deg rotation - cart. axis [1,1,0]

   Cartesian axes

     site n.     atom                  positions (alat units)
         1        Y      tau(   1) = (   0.2500000   0.2500000   0.7624455  )
         2        Y      tau(   2) = (   0.2500000   0.7500000   0.7624455  )
         3        Y      tau(   3) = (   0.7499999   0.2500000   0.7624455  )
         4        Y      tau(   4) = (   0.7500000   0.7500000   0.7624455  )
         5        Ba     tau(   5) = (   0.2500000   0.2500000   0.2966571  )
         6        Ba     tau(   6) = (   0.2500000   0.2500000   1.2282339  )
         7        Ba     tau(   7) = (   0.2500000   0.7500000   0.2966571  )
         8        Ba     tau(   8) = (   0.2500000   0.7500000   1.2282339  )
         9        Ba     tau(   9) = (   0.7500000   0.2500000   0.2966571  )
        10        Ba     tau(  10) = (   0.7500000   0.2500000   1.2282339  )
        11        Ba     tau(  11) = (   0.7500000   0.7500000   0.2966571  )
        12        Ba     tau(  12) = (   0.7500000   0.7500000   1.2282339  )
        13        Cu     tau(  13) = (   0.0000000   0.0000000   0.0000000  )
        14        Cu1    tau(  14) = (   0.0000000   0.0000000   0.5526369  )
        15        Cu1    tau(  15) = (   0.0000000   0.0000000   0.9722541  )
        16        Cu     tau(  16) = (   0.0000000   0.5000000   0.0000000  )
        17        Cu2    tau(  17) = (   0.0000000   0.5000000   0.5526369  )
        18        Cu2    tau(  18) = (   0.0000000   0.5000000   0.9722541  )
        19        Cu     tau(  19) = (   0.5000000   0.0000000   0.0000000  )
        20        Cu2    tau(  20) = (   0.5000000   0.0000000   0.5526369  )
        21        Cu2    tau(  21) = (   0.5000000   0.0000000   0.9722541  )
[...]
      -0.000  0.980 -0.000  0.000  0.000
      -0.000 -0.000  0.980  0.000  0.000
       0.000  0.000  0.000  0.536 -0.000
       0.000  0.000  0.000 -0.000  0.985
     ------------------------ ATOM   24 ------------------------
     Tr[ns( 24)] (up, down, total) =   4.83264  4.42946  9.26209
     Atomic magnetic moment for atom  24 =   0.40318
     SPIN  1
     eigenvalues:
       0.927  0.952  0.983  0.983  0.988
     eigenvectors (columns):
      -0.000  1.000 -0.000 -0.000  0.000
      -0.000  0.000  0.300  0.954  0.000
      -0.000  0.000  0.954 -0.300  0.000
       1.000  0.000  0.000  0.000 -0.000
       0.000 -0.000 -0.000 -0.000  1.000
     occupation matrix ns (before diag.):
       0.952 -0.000 -0.000  0.000  0.000
      -0.000  0.983 -0.000  0.000  0.000
      -0.000 -0.000  0.983  0.000  0.000
       0.000  0.000  0.000  0.927 -0.000
       0.000  0.000  0.000 -0.000  0.988
     SPIN  2
     eigenvalues:
       0.536  0.948  0.980  0.980  0.985
     eigenvectors (columns):
      -0.000  1.000 -0.000 -0.000  0.000
      -0.000  0.000  0.366  0.931  0.000
      -0.000  0.000  0.931 -0.366  0.000
       1.000  0.000  0.000  0.000 -0.000
       0.000 -0.000 -0.000 -0.000  1.000
     occupation matrix ns (before diag.):
       0.948 -0.000 -0.000  0.000  0.000
      -0.000  0.980 -0.000  0.000  0.000
      -0.000 -0.000  0.980  0.000  0.000
       0.000  0.000  0.000  0.536 -0.000
       0.000  0.000  0.000 -0.000  0.985

     Number of occupied Hubbard levels =   74.0968

     negative rho (up, down):  3.432E-01 3.432E-01

     HUBBARD ENERGY =    0.3750  (Ry)

     Magnetic moment per site  (integrated on atomic sphere of radius R)
     atom   1 (R=0.128)  charge=  7.5343  magn=  0.0000
     atom   2 (R=0.128)  charge=  7.5343  magn=  0.0000
     atom   3 (R=0.128)  charge=  7.5343  magn=  0.0000
     atom   4 (R=0.128)  charge=  7.5343  magn=  0.0000
     atom   5 (R=0.148)  charge=  6.6003  magn=  0.0000
     atom   6 (R=0.148)  charge=  6.6003  magn=  0.0000
     atom   7 (R=0.148)  charge=  6.6003  magn=  0.0000
     atom   8 (R=0.148)  charge=  6.6003  magn=  0.0000
     atom   9 (R=0.148)  charge=  6.6003  magn=  0.0000
     atom  10 (R=0.148)  charge=  6.6003  magn=  0.0000
     atom  11 (R=0.148)  charge=  6.6003  magn=  0.0000
     atom  12 (R=0.148)  charge=  6.6003  magn=  0.0000
     atom  13 (R=0.095)  charge= 15.9272  magn= -0.0008
     atom  14 (R=0.104)  charge= 16.3583  magn=  0.4046
     atom  15 (R=0.104)  charge= 16.3583  magn=  0.4046
     atom  16 (R=0.095)  charge= 15.9272  magn=  0.0014
     atom  17 (R=0.104)  charge= 16.3583  magn= -0.4046
     atom  18 (R=0.104)  charge= 16.3583  magn= -0.4046
     atom  19 (R=0.095)  charge= 15.9272  magn=  0.0014
     atom  20 (R=0.104)  charge= 16.3583  magn= -0.4046
     atom  21 (R=0.104)  charge= 16.3583  magn= -0.4046
     atom  22 (R=0.095)  charge= 15.9272  magn= -0.0008
     atom  23 (R=0.104)  charge= 16.3583  magn=  0.4046
     atom  24 (R=0.104)  charge= 16.3583  magn=  0.4046
     atom  25 (R=0.095)  charge=  4.8350  magn= -0.0040
     atom  26 (R=0.095)  charge=  4.8350  magn= -0.0040
     atom  27 (R=0.095)  charge=  4.8350  magn=  0.0043
     atom  28 (R=0.095)  charge=  4.8350  magn=  0.0043
     atom  29 (R=0.095)  charge=  4.8350  magn=  0.0043
     atom  30 (R=0.095)  charge=  4.8350  magn=  0.0043
     atom  31 (R=0.095)  charge=  4.8350  magn= -0.0040
     atom  32 (R=0.095)  charge=  4.8350  magn= -0.0040
     atom  33 (R=0.095)  charge=  4.8874  magn=  0.0000
     atom  34 (R=0.095)  charge=  4.8874  magn=  0.0000
     atom  35 (R=0.095)  charge=  4.8874  magn=  0.0000
     atom  36 (R=0.095)  charge=  4.8874  magn=  0.0000
     atom  37 (R=0.095)  charge=  4.8874  magn=  0.0000
     atom  38 (R=0.095)  charge=  4.8874  magn=  0.0000
     atom  39 (R=0.095)  charge=  4.8874  magn=  0.0000
     atom  40 (R=0.095)  charge=  4.8874  magn=  0.0000
     atom  41 (R=0.095)  charge=  4.8874  magn=  0.0000
     atom  42 (R=0.095)  charge=  4.8874  magn=  0.0000
     atom  43 (R=0.095)  charge=  4.8874  magn=  0.0000
     atom  44 (R=0.095)  charge=  4.8874  magn=  0.0000
     atom  45 (R=0.095)  charge=  4.8874  magn=  0.0000
     atom  46 (R=0.095)  charge=  4.8874  magn=  0.0000
     atom  47 (R=0.095)  charge=  4.8874  magn=  0.0000
     atom  48 (R=0.095)  charge=  4.8874  magn=  0.0000

     End of self-consistent calculation

 ------ SPIN UP ------------

          k = 0.0000 0.0000 0.0000 ( 35361 PWs)   bands (ev):

  -101.0919-101.0919-101.0918-101.0918-100.5929-100.5929-100.5916-100.5916
  -100.4616-100.4616-100.4615-100.4615 -58.7234 -58.7234 -58.7234 -58.7234
   -58.7233 -58.7233 -58.7233 -58.7233 -58.1803 -58.1803 -58.1783 -58.1783
   -58.0136 -58.0136 -58.0120 -58.0120 -57.9625 -57.9625 -57.9625 -57.9625
   -57.9624 -57.9624 -57.9624 -57.9624 -57.8995 -57.8995 -57.8995 -57.8995
   -57.8984 -57.8984 -57.8983 -57.8983 -57.7300 -57.7300 -57.7284 -57.7283
   -29.7667 -29.7494 -29.7494 -29.7326 -15.0314 -15.0246 -14.8870 -14.8870
   -14.8818 -14.8818 -14.7770 -14.7716 -10.5163 -10.5116 -10.4968 -10.4466
   -10.4466 -10.1836 -10.1836  -9.9104  -9.7908  -9.7908  -9.7688  -9.7667
    -7.4116  -6.7348  -6.7143  -6.5546  -6.5546  -6.4649  -6.4569  -6.3733
    -6.3733  -6.2555  -6.1475  -6.1405  -6.0680  -6.0454  -6.0368  -5.9198
    -5.8984  -5.8542  -5.8166  -5.8129  -5.8129  -5.7311  -5.7115  -5.7115
    -0.7778  -0.7778  -0.7640  -0.7640  -0.4131  -0.4078  -0.4008  -0.4008
    -0.2326  -0.2272  -0.2272  -0.1914  -0.0793  -0.0771   0.0009   0.0029
     0.0986   0.0986   0.1024   0.1024   0.3421   0.3423   0.3503   0.3505
     3.6939   4.3100   4.5888   4.7206   5.1122   5.2767   5.2830   5.3633
     5.4228   5.9833   6.0260   6.0407   6.0407   6.0752   6.0882   6.1071
     6.1071   6.1516   6.1577   6.1637   6.2381   6.4098   6.4098   6.5404
     6.5404   6.5773   6.6891   6.6891   6.7974   6.8087   6.8087   6.9904
     6.9904   7.1214   7.1214   7.3383   7.3383   7.3444   7.3492   7.3965
     7.4576   7.4932   7.5395   7.5601   7.5655   7.6241   7.6373   7.6373
     7.7268   7.7268   7.9049   7.9049   7.9233   7.9233   7.9305   7.9305
     8.0703   8.0858   8.0858   8.0944   8.0944   8.1910   8.2150   8.2163
     8.2163   8.2860   8.4031   8.4031   8.6254   8.7132   8.7132   8.7464
     8.7464   8.7488   8.7532   8.7592   8.8500   9.0468   9.0468   9.1387
     9.1387   9.1802   9.1993   9.2061   9.2414   9.2590   9.2632   9.2632
     9.3677   9.3678   9.4344   9.4344   9.4380   9.4592   9.4981   9.5460
     9.5612   9.5702   9.6014   9.6090   9.6458   9.7650   9.7650   9.7673
     9.8220   9.8324   9.8766   9.8766   9.8854   9.9364   9.9433   9.9917
    10.0371  10.0371  10.1035  10.1847  10.2256  10.2256  10.4494  10.6053
    10.6053  10.6198  10.6198  10.6464  11.0305  11.0305  11.1229  11.1229
    11.2162  11.7290  12.9790  12.9790  13.6235  13.6547  13.6946  14.0315
    14.0520  14.0520  14.2897  14.4889  14.6127  15.5423  15.5949  15.6052
    15.7716  15.8043  15.8043  16.2882  16.2882  16.3298  16.4814  16.6723
    16.6723  16.7943  16.7973  16.9016  16.9172  16.9249  16.9562  16.9562
    17.0242  17.0242  17.0505  17.1071  17.1659  17.1659  17.2327  17.5075
    17.6371  17.6407  17.9908  17.9918  18.1466  18.1466  18.3110  18.3129
    18.3948  18.3949

     occupation numbers
     1.0000   1.0000   1.0000   1.0000   1.0000   1.0000   1.0000   1.0000
     1.0000   1.0000   1.0000   1.0000   1.0000   1.0000   1.0000   1.0000
     1.0000   1.0000   1.0000   1.0000   1.0000   1.0000   1.0000   1.0000
     1.0000   1.0000   1.0000   1.0000   1.0000   1.0000   1.0000   1.0000
     1.0000   1.0000   1.0000   1.0000   1.0000   1.0000   1.0000   1.0000
     1.0000   1.0000   1.0000   1.0000   1.0000   1.0000   1.0000   1.0000
     1.0000   1.0000   1.0000   1.0000   1.0000   1.0000   1.0000   1.0000
     1.0000   1.0000   1.0000   1.0000   1.0000   1.0000   1.0000   1.0000
     1.0000   1.0000   1.0000   1.0000   1.0000   1.0000   1.0000   1.0000
     1.0000   1.0000   1.0000   1.0000   1.0000   1.0000   1.0000   1.0000
     1.0000   1.0000   1.0000   1.0000   1.0000   1.0000   1.0000   1.0000
     1.0000   1.0000   1.0000   1.0000   1.0000   1.0000   1.0000   1.0000
     1.0000   1.0000   1.0000   1.0000   1.0000   1.0000   1.0000   1.0000
     1.0000   1.0000   1.0000   1.0000   1.0000   1.0000   1.0000   1.0000
     1.0000   1.0000   1.0000   1.0000   1.0000   1.0000   1.0000   1.0000
     1.0000   1.0000   1.0000   1.0000   1.0000   1.0000   1.0000   1.0000
     1.0000   1.0000   1.0000   1.0000   1.0000   1.0000   1.0000   1.0000
     1.0000   1.0000   1.0000   1.0000   1.0000   1.0000   1.0000   1.0000
     1.0000   1.0000   1.0000   1.0000   1.0000   1.0000   1.0000   1.0000
     1.0000   1.0000   1.0000   1.0000   1.0000   1.0000   1.0000   1.0000
     1.0000   1.0000   1.0000   1.0000   1.0000   1.0000   1.0000   1.0000
     1.0000   1.0000   1.0000   1.0000   1.0000   1.0000   1.0000   1.0000
     1.0000   1.0000   1.0000   1.0000   1.0000   1.0000   1.0000   1.0000
     1.0000   1.0000   1.0000   1.0000   1.0000   1.0000   1.0000   1.0000
     1.0000   1.0000   1.0000   1.0000   1.0000   1.0000   1.0000   1.0000
     1.0000   1.0000   1.0000   1.0000   1.0000   1.0000   1.0000   1.0000
     1.0000   1.0000   1.0000   1.0000   1.0000   1.0000   1.0000   1.0000
     1.0000   1.0000   1.0000   1.0000   1.0000   1.0000   1.0000   1.0000
     1.0000   1.0000   1.0000   1.0000   1.0000   1.0000   1.0000   1.0000
     1.0000   1.0000   1.0000   1.0000   1.0000   1.0000   1.0000   1.0000
     1.0000   1.0000   1.0000   1.0000   1.0331   1.0331   0.8305   0.8305
     0.2926  -0.0000  -0.0000  -0.0000  -0.0000  -0.0000  -0.0000  -0.0000
    -0.0000  -0.0000  -0.0000  -0.0000  -0.0000  -0.0000  -0.0000  -0.0000
    -0.0000  -0.0000  -0.0000  -0.0000  -0.0000  -0.0000  -0.0000  -0.0000
    -0.0000  -0.0000  -0.0000  -0.0000  -0.0000  -0.0000  -0.0000  -0.0000
    -0.0000  -0.0000  -0.0000  -0.0000  -0.0000  -0.0000  -0.0000  -0.0000
    -0.0000  -0.0000  -0.0000  -0.0000  -0.0000  -0.0000  -0.0000  -0.0000
    -0.0000  -0.0000

[...]

 ------ SPIN DOWN ----------

[...]

          k = 0.0000 0.0000-0.3279 ( 35390 PWs)   bands (ev):

  -101.0918-101.0918-101.0918-101.0917-100.5926-100.5926-100.5913-100.5912
  -100.4616-100.4616-100.4616-100.4616 -58.7233 -58.7233 -58.7233 -58.7233
   -58.7232 -58.7232 -58.7232 -58.7232 -58.1799 -58.1799 -58.1779 -58.1779
   -58.0136 -58.0135 -58.0119 -58.0119 -57.9626 -57.9626 -57.9626 -57.9626
   -57.9624 -57.9624 -57.9624 -57.9624 -57.8992 -57.8992 -57.8992 -57.8992
   -57.8981 -57.8981 -57.8981 -57.8981 -57.7301 -57.7301 -57.7284 -57.7284
   -29.7667 -29.7494 -29.7494 -29.7326 -15.0343 -15.0217 -14.8890 -14.8890
   -14.8797 -14.8797 -14.7785 -14.7701 -10.5163 -10.5116 -10.4970 -10.4466
   -10.4466 -10.1836 -10.1836  -9.9104  -9.7908  -9.7908  -9.7688  -9.7667
    -7.4104  -6.7657  -6.7471  -6.5540  -6.5540  -6.3733  -6.3733  -6.3186
    -6.3081  -6.2566  -6.2335  -6.2223  -6.1475  -6.1402  -6.0675  -5.8542
    -5.8465  -5.8283  -5.8165  -5.8136  -5.8136  -5.7314  -5.7115  -5.7115
    -0.7817  -0.7817  -0.7602  -0.7602  -0.3657  -0.3657  -0.3592  -0.3536
    -0.2955  -0.2644  -0.2644  -0.2429  -0.0802  -0.0783   0.0016   0.0038
     0.0948   0.0948   0.1063   0.1063   0.3382   0.3384   0.3543   0.3545
     3.7099   4.2873   4.5958   4.7151   5.1257   5.2664   5.3098   5.3633
     5.4228   5.9614   6.0416   6.0416   6.0470   6.0868   6.0925   6.0999
     6.0999   6.1597   6.1639   6.1829   6.2365   6.4088   6.4088   6.5395
     6.5395   6.5788   6.6883   6.6883   6.7990   6.9009   6.9009   6.9938
     6.9938   7.1359   7.1359   7.2429   7.2905   7.3314   7.3314   7.3453
     7.3870   7.4390   7.4547   7.4547   7.5187   7.5485   7.5659   7.6236
     7.7795   7.7795   7.9110   7.9110   7.9250   7.9250   7.9282   7.9282
     8.0724   8.0724   8.1050   8.1050   8.1602   8.1717   8.1859   8.2659
     8.2659   8.3702   8.3702   8.6718   8.7034   8.7034   8.7481   8.7721
     8.7721   8.7994   8.8108   8.8770   9.0396   9.0396   9.0488   9.0625
     9.0625   9.1822   9.2294   9.2357   9.2509   9.2877   9.3229   9.3647
     9.3725   9.3796   9.3971   9.4148   9.4301   9.4301   9.4593   9.4795
     9.4795   9.4919   9.5035   9.5440   9.5703   9.6014   9.6453   9.6453
     9.7842   9.7842   9.8381   9.8908   9.9049   9.9329   9.9557   9.9926
    10.1013  10.1119  10.1119  10.1847  10.3323  10.3323  10.4971  10.4971
    10.5596  10.5715  10.6146  10.6146  11.0360  11.0360  11.1220  11.1220
    11.2244  11.6952  13.0296  13.0296  13.6236  13.6946  13.9775  14.0642
    14.0642  14.2790  14.2875  14.3826  14.5000  15.5844  15.6131  15.6131
    15.6374  15.6414  15.7409  16.0858  16.1085  16.2887  16.2887  16.4814
    16.5683  16.7873  16.7978  16.8685  16.8685  16.9064  16.9064  16.9415
    16.9415  16.9447  17.0414  17.0941  17.1514  17.1514  17.5962  17.6064
    17.6110  17.6369  17.6369  17.8112  17.8126  18.2233  18.4804  18.4805
    18.6303  18.6333

     occupation numbers
     1.0000   1.0000   1.0000   1.0000   1.0000   1.0000   1.0000   1.0000
     1.0000   1.0000   1.0000   1.0000   1.0000   1.0000   1.0000   1.0000
     1.0000   1.0000   1.0000   1.0000   1.0000   1.0000   1.0000   1.0000
     1.0000   1.0000   1.0000   1.0000   1.0000   1.0000   1.0000   1.0000
     1.0000   1.0000   1.0000   1.0000   1.0000   1.0000   1.0000   1.0000
     1.0000   1.0000   1.0000   1.0000   1.0000   1.0000   1.0000   1.0000
     1.0000   1.0000   1.0000   1.0000   1.0000   1.0000   1.0000   1.0000
     1.0000   1.0000   1.0000   1.0000   1.0000   1.0000   1.0000   1.0000
     1.0000   1.0000   1.0000   1.0000   1.0000   1.0000   1.0000   1.0000
     1.0000   1.0000   1.0000   1.0000   1.0000   1.0000   1.0000   1.0000
     1.0000   1.0000   1.0000   1.0000   1.0000   1.0000   1.0000   1.0000
     1.0000   1.0000   1.0000   1.0000   1.0000   1.0000   1.0000   1.0000
     1.0000   1.0000   1.0000   1.0000   1.0000   1.0000   1.0000   1.0000
     1.0000   1.0000   1.0000   1.0000   1.0000   1.0000   1.0000   1.0000
     1.0000   1.0000   1.0000   1.0000   1.0000   1.0000   1.0000   1.0000
     1.0000   1.0000   1.0000   1.0000   1.0000   1.0000   1.0000   1.0000
     1.0000   1.0000   1.0000   1.0000   1.0000   1.0000   1.0000   1.0000
     1.0000   1.0000   1.0000   1.0000   1.0000   1.0000   1.0000   1.0000
     1.0000   1.0000   1.0000   1.0000   1.0000   1.0000   1.0000   1.0000
     1.0000   1.0000   1.0000   1.0000   1.0000   1.0000   1.0000   1.0000
     1.0000   1.0000   1.0000   1.0000   1.0000   1.0000   1.0000   1.0000
     1.0000   1.0000   1.0000   1.0000   1.0000   1.0000   1.0000   1.0000
     1.0000   1.0000   1.0000   1.0000   1.0000   1.0000   1.0000   1.0000
     1.0000   1.0000   1.0000   1.0000   1.0000   1.0000   1.0000   1.0000
     1.0000   1.0000   1.0000   1.0000   1.0000   1.0000   1.0000   1.0000
     1.0000   1.0000   1.0000   1.0000   1.0000   1.0000   1.0000   1.0000
     1.0000   1.0000   1.0000   1.0000   1.0000   1.0000   1.0000   1.0000
     1.0000   1.0000   1.0000   1.0000   1.0000   1.0000   1.0000   1.0000
     1.0000   1.0000   1.0000   1.0000   1.0000   1.0000   1.0000   1.0000
     1.0000   1.0000   1.0000   1.0000   1.0000   1.0000   1.0000   1.0000
     1.0000   1.0000   1.0000   1.0000   1.0310   1.0310   0.8348   0.8348
     0.2484  -0.0000  -0.0000  -0.0000  -0.0000  -0.0000  -0.0000  -0.0000
    -0.0000  -0.0000  -0.0000  -0.0000  -0.0000  -0.0000  -0.0000  -0.0000
    -0.0000  -0.0000  -0.0000  -0.0000  -0.0000  -0.0000  -0.0000  -0.0000
    -0.0000  -0.0000  -0.0000  -0.0000  -0.0000  -0.0000  -0.0000  -0.0000
    -0.0000  -0.0000  -0.0000  -0.0000  -0.0000  -0.0000  -0.0000  -0.0000
    -0.0000  -0.0000  -0.0000  -0.0000  -0.0000  -0.0000  -0.0000  -0.0000
    -0.0000  -0.0000

     the Fermi energy is    11.1817 ev

!    total energy              =   -6556.69614733 Ry
     estimated scf accuracy    <          9.4E-09 Ry
     smearing contrib. (-TS)   =      -0.00270929 Ry
     internal energy E=F+TS    =   -6556.69343803 Ry

     The total energy is F=E-TS. E is the sum of the following terms:
     one-electron contribution =   -5519.56334855 Ry
     hartree contribution      =    3045.97415970 Ry
     xc contribution           =    -976.03546442 Ry
     ewald contribution        =   -3107.44375877 Ry
     Hubbard energy            =       0.37497401 Ry

     total magnetization       =     0.00 Bohr mag/cell
     absolute magnetization    =     4.59 Bohr mag/cell

     convergence has been achieved in  44 iterations

     Writing all to output data dir ./YBCO6/YBCO6.save/

     General routines

     Parallel routines

     Hubbard U routines

   This run was terminated on:  19: 7:49   1Jan2024

   JOB DONE.