     Program PWSCF v.7.2 starts on 27Dec2023 at  0: 1:48

     Waiting for input...
     Reading input from standard input
Warning: card &CELL ignored
Warning: card / ignored

     Current dimensions of program PWSCF are:
     Max number of different atomic species (ntypx) = 10
     Max number of k-points (npk) =  40000
     Max angular momentum in pseudopotentials (lmaxx) =  4
     Found identity + (  0.5000  0.5000  0.0000) symmetry
     This is a supercell, fractional translations are disabled

     R & G space division:  proc/nbgrp/npool/nimage =       4
     Subspace diagonalization in iterative solution of the eigenvalue problem:
     one sub-group per band group will be used

     Using Slab Decomposition

     bravais-lattice index     =            6
     lattice parameter (alat)  =      14.7534  a.u.
     unit-cell volume          =    4999.6511 (a.u.)^3
     number of atoms/cell      =           48
     number of atomic types    =            6
     number of electrons       =       496.00
     number of Kohn-Sham states=          298
     kinetic-energy cutoff     =      90.0000  Ry
     charge density cutoff     =     720.0000  Ry
     scf convergence threshold =      1.0E-08
     mixing beta               =       0.1000
     number of iterations used =            8  plain     mixing
     Exchange-correlation= SLA  PW   PBE  PBE
                           (   1   4   3   4   0   0   0)
     Hubbard projectors: ortho-atomic
     Hubbard parameters of DFT+U (Dudarev formulation) in eV:
     U(Cu1-3d) =  2.5000
     U(Cu2-3d) =  2.5000

     Internal variables: lda_plus_u = T, lda_plus_u_kind = 0

     celldm(1)=  14.753444  celldm(2)=   0.000000  celldm(3)=   1.556895
     celldm(4)=   0.000000  celldm(5)=   0.000000  celldm(6)=   0.000000

     crystal axes: (cart. coord. in units of alat)
               a(1) = (   1.000000   0.000000   0.000000 )
               a(2) = (   0.000000   1.000000   0.000000 )
               a(3) = (   0.000000   0.000000   1.556895 )

     reciprocal axes: (cart. coord. in units 2 pi/alat)
               b(1) = (  1.000000  0.000000  0.000000 )
               b(2) = (  0.000000  1.000000  0.000000 )
               b(3) = (  0.000000  0.000000  0.642304 )

     PseudoPot. # 1 for Y  read from file:
     ~/q-e/pseudo/all_pbe_UPF_v1.5/y_pbe_v1.4.uspp.F.UPF
     MD5 check sum: Not computed, couldn't open file
     Pseudo is Ultrasoft + core correction, Zval = 11.0
     Generated by new atomic code, or converted to UPF format
     Using radial grid of  885 points,  6 beta functions with:
                l(1) =   0
                l(2) =   0
                l(3) =   1
                l(4) =   1
                l(5) =   2
                l(6) =   2
     Q(r) pseudized with  8 coefficients,  rinner =    1.200   1.200   1.200
                                                       1.200   1.200

     PseudoPot. # 2 for Ba read from file:
     ~/q-e/pseudo/all_pbe_UPF_v1.5/ba_pbe_v1.uspp.F.UPF
     MD5 check sum: Not computed, couldn't open file
     Pseudo is Ultrasoft + core correction, Zval = 10.0
     Generated by new atomic code, or converted to UPF format
     Using radial grid of  907 points,  7 beta functions with:
                l(1) =   0
                l(2) =   0
                l(3) =   1
                l(4) =   1
                l(5) =   2
                l(6) =   2
                l(7) =   3
     Q(r) pseudized with  6 coefficients,  rinner =    1.700   1.700   1.700
                                                       1.700   1.700   1.700
                                                       1.700

     PseudoPot. # 3 for Cu read from file:
     ~/q-e/pseudo/all_pbe_UPF_v1.5/cu_pbe_v1.2.uspp.F.UPF
     MD5 check sum: Not computed, couldn't open file
     Pseudo is Ultrasoft + core correction, Zval = 19.0
     Generated by new atomic code, or converted to UPF format
     Using radial grid of  867 points,  6 beta functions with:
                l(1) =   0
                l(2) =   0
                l(3) =   1
                l(4) =   1
                l(5) =   2
                l(6) =   2
     Q(r) pseudized with  8 coefficients,  rinner =    1.150   1.150   1.150
                                                       1.150   1.150

[...]

     PseudoPot. # 5 for Cu read from file:
     ~/q-e/pseudo/all_pbe_UPF_v1.5/cu_pbe_v1.2.uspp.F.UPF
     MD5 check sum: Not computed, couldn't open file
     Pseudo is Ultrasoft + core correction, Zval = 19.0
     Generated by new atomic code, or converted to UPF format
     Using radial grid of  867 points,  6 beta functions with:
                l(1) =   0
                l(2) =   0
                l(3) =   1
                l(4) =   1
                l(5) =   2
                l(6) =   2
     Q(r) pseudized with  8 coefficients,  rinner =    1.150   1.150   1.150
                                                       1.150   1.150

     PseudoPot. # 6 for O  read from file:
     ~/q-e/pseudo/all_pbe_UPF_v1.5/o_pbe_v1.2.uspp.F.UPF
     MD5 check sum: Not computed, couldn't open file
     Pseudo is Ultrasoft + core correction, Zval =  6.0
     Generated by new atomic code, or converted to UPF format
     Using radial grid of  737 points,  5 beta functions with:
                l(1) =   0
                l(2) =   0
                l(3) =   1
                l(4) =   1
                l(5) =   2
     Q(r) pseudized with  8 coefficients,  rinner =    0.900   0.900   0.900
                                                       0.900   0.900

     atomic species   valence    mass     pseudopotential
     Y                11.00    88.90584     Y ( 1.00)
     Ba               10.00   137.32700     Ba( 1.00)
     Cu               19.00    63.54600     Cu( 1.00)
     Cu1              19.00    63.54600     Cu( 1.00)
     Cu2              19.00    63.54600     Cu( 1.00)
     O                 6.00    15.99900     O ( 1.00)

     Starting magnetic structure
     atomic species   magnetization
     Y               0.000
     Ba              0.000
     Cu              0.000
     Cu1             0.100
     Cu2            -0.100
     O               0.000

      4 Sym. Ops. (no inversion) found

                                    s                        frac. trans.

      isym =  1     identity

 cryst.   s( 1) = (     1          0          0      )
                  (     0          1          0      )
                  (     0          0          1      )

 cart.    s( 1) = (  1.0000000  0.0000000  0.0000000 )
                  (  0.0000000  1.0000000  0.0000000 )
                  (  0.0000000  0.0000000  1.0000000 )

      isym =  2     180 deg rotation - cart. axis [0,0,1]

[...]

      isym =  3     inv. 180 deg rotation - cart. axis [0,1,0]

[...]

      isym =  4     inv. 180 deg rotation - cart. axis [1,0,0]

 cryst.   s( 4) = (    -1          0          0      )
                  (     0          1          0      )
                  (     0          0          1      )

 cart.    s( 4) = ( -1.0000000  0.0000000  0.0000000 )
                  (  0.0000000  1.0000000  0.0000000 )
                  (  0.0000000  0.0000000  1.0000000 )

     point group C_2v (mm2)
     there are  4 classes
     the character table:

       E     C2    s_v   s_v'
A_1    1.00  1.00  1.00  1.00
A_2    1.00  1.00 -1.00 -1.00
B_1    1.00 -1.00  1.00 -1.00
B_2    1.00 -1.00 -1.00  1.00

     the symmetry operations in each class and the name of the first element:

     E        1
          identity
     C2       2
          180 deg rotation - cart. axis [0,0,1]
     s_v      4
          inv. 180 deg rotation - cart. axis [1,0,0]
     s_v'     3
          inv. 180 deg rotation - cart. axis [0,1,0]

   Cartesian axes

     site n.     atom                  positions (alat units)
         1        Y      tau(   1) = (   0.2500001   0.2500001   0.7784475  )
         2        Y      tau(   2) = (   0.2500001   0.7499999   0.7784475  )
         3        Y      tau(   3) = (   0.7499999   0.2500001   0.7784475  )
         4        Y      tau(   4) = (   0.7499999   0.7499999   0.7784475  )
         5        Ba     tau(   5) = (   0.2499997   0.2499998   0.3202107  )
         6        Ba     tau(   6) = (   0.2499997   0.2499998   1.2366849  )
         7        Ba     tau(   7) = (   0.2499997   0.7500002   0.3202107  )
         8        Ba     tau(   8) = (   0.2499997   0.7500002   1.2366849  )
         9        Ba     tau(   9) = (   0.7500003   0.2499998   0.3202107  )
        10        Ba     tau(  10) = (   0.7500003   0.2499998   1.2366849  )
        11        Ba     tau(  11) = (   0.7500003   0.7500002   0.3202107  )
        12        Ba     tau(  12) = (   0.7500003   0.7500002   1.2366849  )
        13        Cu     tau(  13) = (   0.0000000   0.0000000   0.0000003  )
        14        Cu1    tau(  14) = (   0.0000000   0.0000000   0.5826016  )
        15        Cu2    tau(  15) = (   0.0000000   0.0000000   0.9742935  )
        16        Cu     tau(  16) = (   0.0000000   0.5000000   0.0000004  )
        17        Cu2    tau(  17) = (   0.0000000   0.5000000   0.5826023  )
        18        Cu1    tau(  18) = (   0.0000000   0.5000000   0.9742924  )
        19        Cu     tau(  19) = (   0.5000000   0.0000000   0.0000003  )
        20        Cu2    tau(  20) = (   0.5000000   0.0000000   0.5826022  )
        21        Cu1    tau(  21) = (   0.5000000   0.0000000   0.9742926  )
        22        Cu     tau(  22) = (   0.5000000   0.5000000   0.0000004  )
        23        Cu1    tau(  23) = (   0.5000000   0.5000000   0.5826026  )
        24        Cu2    tau(  24) = (   0.5000000   0.5000000   0.9742925  )
        25        O      tau(  25) = (   0.0000000   0.0000000   0.2292807  )
        26        O      tau(  26) = (   0.0000000   0.0000000   1.3276159  )
        27        O      tau(  27) = (   0.5000000   0.0000000   0.2292811  )
        28        O      tau(  28) = (   0.5000000   0.0000000   1.3276154  )
        29        O      tau(  29) = (   0.0000000   0.5000000   0.2292814  )
        30        O      tau(  30) = (   0.0000000   0.5000000   1.3276153  )
        31        O      tau(  31) = (   0.5000000   0.5000000   0.2292814  )
        32        O      tau(  32) = (   0.5000000   0.5000000   1.3276151  )
        33        O      tau(  33) = (   0.2499993   0.0000000   0.5927738  )
        34        O      tau(  34) = (   0.2499993   0.0000000   0.9641212  )
        35        O      tau(  35) = (   0.2499993   0.5000000   0.5927739  )
        36        O      tau(  36) = (   0.2499993   0.5000000   0.9641211  )
        37        O      tau(  37) = (   0.7500007   0.0000000   0.5927738  )
        38        O      tau(  38) = (   0.7500007   0.0000000   0.9641212  )
        39        O      tau(  39) = (   0.7500007   0.5000000   0.5927739  )
        40        O      tau(  40) = (   0.7500007   0.5000000   0.9641211  )
        41        O      tau(  41) = (   0.0000000   0.2499993   0.5928121  )
        42        O      tau(  42) = (   0.0000000   0.2499993   0.9640829  )
        43        O      tau(  43) = (   0.5000000   0.2499993   0.5928122  )
[...]
     atom   27 type  6   force =     0.00000000    0.00000000   -1.10765596
     atom   28 type  6   force =    -0.00000000   -0.00000000    1.10736856
     atom   29 type  6   force =     0.00000000    0.00000000   -1.10771448
     atom   30 type  6   force =     0.00000000   -0.00000000    1.10741470
     atom   31 type  6   force =     0.00000000    0.00000000   -1.10769751
     atom   32 type  6   force =    -0.00000000   -0.00000000    1.10742739
     atom   33 type  6   force =     0.00019784    0.00000000  -13.97561929
     atom   34 type  6   force =     0.00019829   -0.00000000   13.97571783
     atom   35 type  6   force =     0.00021564   -0.00000000  -13.97569315
     atom   36 type  6   force =     0.00021379   -0.00000000   13.97579648
     atom   37 type  6   force =    -0.00019784   -0.00000000  -13.97561929
     atom   38 type  6   force =    -0.00019829    0.00000000   13.97571783
     atom   39 type  6   force =    -0.00021564    0.00000000  -13.97569315
     atom   40 type  6   force =    -0.00021379   -0.00000000   13.97579648
     atom   41 type  6   force =     0.00000000    0.00018833  -13.97232468
     atom   42 type  6   force =    -0.00000000    0.00019133   13.97242950
     atom   43 type  6   force =     0.00000000    0.00020630  -13.97239323
     atom   44 type  6   force =     0.00000000    0.00020531   13.97248795
     atom   45 type  6   force =    -0.00000000   -0.00018833  -13.97232468
     atom   46 type  6   force =     0.00000000   -0.00019133   13.97242950
     atom   47 type  6   force =     0.00000000   -0.00020630  -13.97239323
     atom   48 type  6   force =     0.00000000   -0.00020531   13.97248795
     The local contribution  to forces
     atom    1 type  1   force =    -0.00001956   -0.00000353   -0.00009123
     atom    2 type  1   force =    -0.00001956    0.00000353   -0.00009123
     atom    3 type  1   force =     0.00001956   -0.00000353   -0.00009123
     atom    4 type  1   force =     0.00001956    0.00000353   -0.00009123
     atom    5 type  2   force =    -0.00009253   -0.00007301   28.13168712
     atom    6 type  2   force =    -0.00008776   -0.00007960  -28.13158766
     atom    7 type  2   force =    -0.00009253    0.00007301   28.13168712
     atom    8 type  2   force =    -0.00008776    0.00007960  -28.13158766
     atom    9 type  2   force =     0.00009253   -0.00007301   28.13168712
     atom   10 type  2   force =     0.00008776   -0.00007960  -28.13158766
     atom   11 type  2   force =     0.00009253    0.00007301   28.13168712
     atom   12 type  2   force =     0.00008776    0.00007960  -28.13158766
     atom   13 type  3   force =    -0.00000000   -0.00000000    0.00016877
     atom   14 type  4   force =     0.00000000   -0.00000000   46.55172043
     atom   15 type  5   force =     0.00000000   -0.00000000  -46.55204520
     atom   16 type  3   force =    -0.00000000    0.00000000    0.00022583
     atom   17 type  5   force =    -0.00000000    0.00000000   46.55173716
     atom   18 type  4   force =     0.00000000    0.00000000  -46.55198559
     atom   19 type  3   force =     0.00000000   -0.00000000    0.00017530
     atom   20 type  5   force =     0.00000000   -0.00000000   46.55174861
     atom   21 type  4   force =     0.00000000    0.00000000  -46.55201149
     atom   22 type  3   force =     0.00000000    0.00000000    0.00019498
     atom   23 type  4   force =     0.00000000    0.00000000   46.55172028
     atom   24 type  5   force =     0.00000000    0.00000000  -46.55205418
     atom   25 type  6   force =    -0.00000000    0.00000000    1.72030528
     atom   26 type  6   force =    -0.00000000    0.00000000   -1.72002505
     atom   27 type  6   force =     0.00000000   -0.00000000    1.72041313
     atom   28 type  6   force =     0.00000000   -0.00000000   -1.72012929
     atom   29 type  6   force =     0.00000000    0.00000000    1.72046816
     atom   30 type  6   force =    -0.00000000    0.00000000   -1.72017186
     atom   31 type  6   force =     0.00000000   -0.00000000    1.72045731
     atom   32 type  6   force =     0.00000000    0.00000000   -1.72018985
     atom   33 type  6   force =    -0.00019213   -0.00000000   13.86364094
     atom   34 type  6   force =    -0.00019318    0.00000000  -13.86374134
     atom   35 type  6   force =    -0.00020858    0.00000000   13.86371441
     atom   36 type  6   force =    -0.00020594    0.00000000  -13.86381916
     atom   37 type  6   force =     0.00019213    0.00000000   13.86364094
     atom   38 type  6   force =     0.00019318   -0.00000000  -13.86374134
     atom   39 type  6   force =     0.00020858   -0.00000000   13.86371441
     atom   40 type  6   force =     0.00020594   -0.00000000  -13.86381916
     atom   41 type  6   force =     0.00000000   -0.00018396   13.86054934
     atom   42 type  6   force =    -0.00000000   -0.00018744  -13.86065557
     atom   43 type  6   force =    -0.00000000   -0.00020056   13.86061812
     atom   44 type  6   force =    -0.00000000   -0.00019884  -13.86071489
     atom   45 type  6   force =    -0.00000000    0.00018396   13.86054934
     atom   46 type  6   force =     0.00000000    0.00018744  -13.86065557
     atom   47 type  6   force =     0.00000000    0.00020056   13.86061812
     atom   48 type  6   force =     0.00000000    0.00019884  -13.86071489
     The core correction contribution to forces
     atom    1 type  1   force =     0.00000004    0.00000003   -0.00000000
     atom    2 type  1   force =     0.00000004   -0.00000003   -0.00000000
     atom    3 type  1   force =    -0.00000004    0.00000003   -0.00000000
     atom    4 type  1   force =    -0.00000004   -0.00000003   -0.00000000
     atom    5 type  2   force =    -0.00000010   -0.00000004    0.00070582
     atom    6 type  2   force =    -0.00000011   -0.00000002   -0.00070579
     atom    7 type  2   force =    -0.00000010    0.00000004    0.00070582
     atom    8 type  2   force =    -0.00000011    0.00000002   -0.00070579
     atom    9 type  2   force =     0.00000010   -0.00000004    0.00070582
     atom   10 type  2   force =     0.00000011   -0.00000002   -0.00070579
     atom   11 type  2   force =     0.00000010    0.00000004    0.00070582
     atom   12 type  2   force =     0.00000011    0.00000002   -0.00070579
     atom   13 type  3   force =     0.00000000    0.00000000   -0.00000001
     atom   14 type  4   force =    -0.00000000    0.00000000    0.00002979
     atom   15 type  5   force =    -0.00000000    0.00000000   -0.00002980
     atom   16 type  3   force =     0.00000000    0.00000000   -0.00000001
     atom   17 type  5   force =    -0.00000000    0.00000000    0.00002976
     atom   18 type  4   force =     0.00000000    0.00000000   -0.00002976
     atom   19 type  3   force =     0.00000000    0.00000000   -0.00000001
     atom   20 type  5   force =     0.00000000   -0.00000000    0.00002977
     atom   21 type  4   force =     0.00000000   -0.00000000   -0.00002977
     atom   22 type  3   force =     0.00000000    0.00000000   -0.00000001
     atom   23 type  4   force =     0.00000000    0.00000000    0.00002974
     atom   24 type  5   force =     0.00000000    0.00000000   -0.00002976
     atom   25 type  6   force =     0.00000000   -0.00000000    0.00370784
     atom   26 type  6   force =     0.00000000    0.00000000   -0.00370783
     atom   27 type  6   force =     0.00000000    0.00000000    0.00370785
     atom   28 type  6   force =     0.00000000    0.00000000   -0.00370784
     atom   29 type  6   force =     0.00000000   -0.00000000    0.00370785
     atom   30 type  6   force =     0.00000000    0.00000000   -0.00370785
     atom   31 type  6   force =    -0.00000000   -0.00000000    0.00370784
     atom   32 type  6   force =     0.00000000    0.00000000   -0.00370783
     atom   33 type  6   force =     0.00000002   -0.00000000   -0.00042195
     atom   34 type  6   force =     0.00000001   -0.00000000    0.00042193
     atom   35 type  6   force =     0.00000001    0.00000000   -0.00042198
     atom   36 type  6   force =     0.00000002   -0.00000000    0.00042197
     atom   37 type  6   force =    -0.00000002    0.00000000   -0.00042195
     atom   38 type  6   force =    -0.00000001    0.00000000    0.00042193
     atom   39 type  6   force =    -0.00000001   -0.00000000   -0.00042198
     atom   40 type  6   force =    -0.00000002    0.00000000    0.00042197
     atom   41 type  6   force =    -0.00000000    0.00000002   -0.00041924
     atom   42 type  6   force =    -0.00000000    0.00000001    0.00041923
     atom   43 type  6   force =    -0.00000000    0.00000001   -0.00041927
     atom   44 type  6   force =    -0.00000000    0.00000002    0.00041925
     atom   45 type  6   force =     0.00000000   -0.00000002   -0.00041924
     atom   46 type  6   force =     0.00000000   -0.00000001    0.00041923
     atom   47 type  6   force =    -0.00000000   -0.00000001   -0.00041927
     atom   48 type  6   force =     0.00000000   -0.00000002    0.00041925
     The Hubbard contrib.    to forces
     atom    1 type  1   force =    -0.00000001   -0.00000001   -0.00000000
     atom    2 type  1   force =    -0.00000001    0.00000001   -0.00000000
     atom    3 type  1   force =     0.00000001   -0.00000001   -0.00000000
     atom    4 type  1   force =     0.00000001    0.00000001   -0.00000000
     atom    5 type  2   force =     0.00000000   -0.00000000   -0.00048142
     atom    6 type  2   force =    -0.00000000   -0.00000000    0.00048141
     atom    7 type  2   force =     0.00000000    0.00000000   -0.00048142
     atom    8 type  2   force =    -0.00000000    0.00000000    0.00048141
     atom    9 type  2   force =    -0.00000000   -0.00000000   -0.00048142
     atom   10 type  2   force =     0.00000000   -0.00000000    0.00048141
     atom   11 type  2   force =    -0.00000000    0.00000000   -0.00048142
     atom   12 type  2   force =     0.00000000    0.00000000    0.00048141
     atom   13 type  3   force =     0.00000000    0.00000000   -0.00000000
     atom   14 type  4   force =     0.00000000    0.00000000    0.00107151
     atom   15 type  5   force =     0.00000000    0.00000000   -0.00107139
     atom   16 type  3   force =     0.00000000    0.00000000   -0.00000000
     atom   17 type  5   force =     0.00000000    0.00000000    0.00107182
     atom   18 type  4   force =     0.00000000    0.00000000   -0.00107180
     atom   19 type  3   force =     0.00000000    0.00000000   -0.00000000
     atom   20 type  5   force =     0.00000000    0.00000000    0.00107180
     atom   21 type  4   force =     0.00000000    0.00000000   -0.00107177
     atom   22 type  3   force =     0.00000000    0.00000000   -0.00000000
     atom   23 type  4   force =     0.00000000    0.00000000    0.00107200
     atom   24 type  5   force =     0.00000000    0.00000000   -0.00107187
     atom   25 type  6   force =     0.00000000    0.00000000   -0.00004839
     atom   26 type  6   force =     0.00000000    0.00000000    0.00004839
     atom   27 type  6   force =     0.00000000    0.00000000   -0.00004840
     atom   28 type  6   force =     0.00000000    0.00000000    0.00004839
     atom   29 type  6   force =     0.00000000    0.00000000   -0.00004840
     atom   30 type  6   force =     0.00000000    0.00000000    0.00004839
     atom   31 type  6   force =     0.00000000    0.00000000   -0.00004840
     atom   32 type  6   force =     0.00000000    0.00000000    0.00004839
     atom   33 type  6   force =     0.00000002    0.00000000    0.00010262
     atom   34 type  6   force =     0.00000002    0.00000000   -0.00010262
     atom   35 type  6   force =     0.00000002    0.00000000    0.00010262
     atom   36 type  6   force =     0.00000002    0.00000000   -0.00010262
     atom   37 type  6   force =    -0.00000002    0.00000000    0.00010262
     atom   38 type  6   force =    -0.00000002    0.00000000   -0.00010262
     atom   39 type  6   force =    -0.00000002    0.00000000    0.00010262
     atom   40 type  6   force =    -0.00000002    0.00000000   -0.00010262
     atom   41 type  6   force =     0.00000000    0.00000002    0.00010289
     atom   42 type  6   force =     0.00000000    0.00000002   -0.00010289
     atom   43 type  6   force =     0.00000000    0.00000002    0.00010289
     atom   44 type  6   force =     0.00000000    0.00000002   -0.00010289
     atom   45 type  6   force =     0.00000000   -0.00000002    0.00010289
     atom   46 type  6   force =     0.00000000   -0.00000002   -0.00010289
     atom   47 type  6   force =     0.00000000   -0.00000002    0.00010289
     atom   48 type  6   force =     0.00000000   -0.00000002   -0.00010289
     The SCF correction term to forces
     atom    1 type  1   force =     0.00000040    0.00000236    0.00000153
     atom    2 type  1   force =     0.00000040   -0.00000236    0.00000153
     atom    3 type  1   force =    -0.00000040    0.00000236    0.00000153
     atom    4 type  1   force =    -0.00000040   -0.00000236    0.00000153
     atom    5 type  2   force =     0.00001282    0.00001248   -0.00004108
     atom    6 type  2   force =     0.00001336    0.00001202    0.00004007
     atom    7 type  2   force =     0.00001282   -0.00001248   -0.00004108
     atom    8 type  2   force =     0.00001336   -0.00001202    0.00004007
     atom    9 type  2   force =    -0.00001282    0.00001248   -0.00004108
     atom   10 type  2   force =    -0.00001336    0.00001202    0.00004007
     atom   11 type  2   force =    -0.00001282   -0.00001248   -0.00004108
     atom   12 type  2   force =    -0.00001336   -0.00001202    0.00004007
     atom   13 type  3   force =     0.00000000   -0.00000000   -0.00000096
     atom   14 type  4   force =    -0.00000000   -0.00000000    0.00006716
     atom   15 type  5   force =     0.00000000    0.00000000   -0.00006446
     atom   16 type  3   force =     0.00000000   -0.00000000   -0.00000161
     atom   17 type  5   force =    -0.00000000   -0.00000000    0.00005161
     atom   18 type  4   force =     0.00000000    0.00000000   -0.00004948
     atom   19 type  3   force =     0.00000000   -0.00000000   -0.00000258
     atom   20 type  5   force =    -0.00000000   -0.00000000    0.00005318
     atom   21 type  4   force =     0.00000000    0.00000000   -0.00004872
     atom   22 type  3   force =     0.00000000   -0.00000000   -0.00000176
     atom   23 type  4   force =    -0.00000000   -0.00000000    0.00003679
     atom   24 type  5   force =     0.00000000    0.00000000   -0.00003427
     atom   25 type  6   force =     0.00000000   -0.00000000    0.00000380
     atom   26 type  6   force =    -0.00000000    0.00000000   -0.00000483
     atom   27 type  6   force =     0.00000000   -0.00000000   -0.00003433
     atom   28 type  6   force =    -0.00000000    0.00000000    0.00003275
     atom   29 type  6   force =     0.00000000   -0.00000000   -0.00003056
     atom   30 type  6   force =    -0.00000000    0.00000000    0.00002981
     atom   31 type  6   force =     0.00000000    0.00000000   -0.00003715
     atom   32 type  6   force =    -0.00000000    0.00000000    0.00003616
     atom   33 type  6   force =     0.00000281   -0.00000000    0.00001911
     atom   34 type  6   force =     0.00000290    0.00000000   -0.00001791
     atom   35 type  6   force =     0.00000055   -0.00000000    0.00001471
     atom   36 type  6   force =     0.00000052    0.00000000   -0.00001385
     atom   37 type  6   force =    -0.00000281   -0.00000000    0.00001911
     atom   38 type  6   force =    -0.00000290    0.00000000   -0.00001791
     atom   39 type  6   force =    -0.00000055   -0.00000000    0.00001471
     atom   40 type  6   force =    -0.00000052    0.00000000   -0.00001385
     atom   41 type  6   force =    -0.00000000    0.00000422    0.00001928
     atom   42 type  6   force =     0.00000000    0.00000401   -0.00001844
     atom   43 type  6   force =    -0.00000000    0.00000198    0.00001455
     atom   44 type  6   force =     0.00000000    0.00000170   -0.00001332
     atom   45 type  6   force =    -0.00000000   -0.00000422    0.00001928
     atom   46 type  6   force =     0.00000000   -0.00000401   -0.00001844
     atom   47 type  6   force =    -0.00000000   -0.00000198    0.00001455
     atom   48 type  6   force =     0.00000000   -0.00000170   -0.00001332

     Total force =     0.019058     Total SCF correction =     0.000220

     Writing all to output data dir ./YBCO6/YBCO6.save/

     General routines

     Parallel routines

     Hubbard U routines
                                        0.00s GPU  (       1 calls)

   This run was terminated on:   0:35:43  27Dec2023

   JOB DONE.