     Program PWSCF v.7.2 starts on  1Jan2024 at 21:54:13

     Waiting for input...
     Reading input from standard input
Warning: card &CELL ignored
Warning: card / ignored

     Current dimensions of program PWSCF are:
     Max number of different atomic species (ntypx) = 10
     Max number of k-points (npk) =  40000
     Max angular momentum in pseudopotentials (lmaxx) =  4
     Found identity + ( -0.5000 -0.5000  0.0000) symmetry
     This is a supercell, fractional translations are disabled

     R & G space division:  proc/nbgrp/npool/nimage =       4
     Subspace diagonalization in iterative solution of the eigenvalue problem:
     one sub-group per band group will be used

     Using Slab Decomposition

     bravais-lattice index     =            6
     lattice parameter (alat)  =      14.3459  a.u.
     unit-cell volume          =    4502.1906 (a.u.)^3
     number of atoms/cell      =           48
     number of atomic types    =            6
     number of electrons       =       496.00
     number of Kohn-Sham states=          298
     kinetic-energy cutoff     =      60.0000  Ry
     charge density cutoff     =     540.0000  Ry
     scf convergence threshold =      1.0E-08
     mixing beta               =       0.1000
     number of iterations used =            8  plain     mixing
     Exchange-correlation= SLA  PW   PBE  PBE
                           (   1   4   3   4   0   0   0)
     Hubbard projectors: ortho-atomic
     Hubbard parameters of DFT+U (Dudarev formulation) in eV:
     U(Cu1-3d) =  2.5000
     U(Cu2-3d) =  2.5000

     Internal variables: lda_plus_u = T, lda_plus_u_kind = 0

     celldm(1)=  14.345919  celldm(2)=   0.000000  celldm(3)=   1.524891
     celldm(4)=   0.000000  celldm(5)=   0.000000  celldm(6)=   0.000000

     crystal axes: (cart. coord. in units of alat)
               a(1) = (   1.000000   0.000000   0.000000 )
               a(2) = (   0.000000   1.000000   0.000000 )
               a(3) = (   0.000000   0.000000   1.524891 )

     reciprocal axes: (cart. coord. in units 2 pi/alat)
               b(1) = (  1.000000  0.000000  0.000000 )
               b(2) = (  0.000000  1.000000  0.000000 )
               b(3) = (  0.000000  0.000000  0.655785 )

     PseudoPot. # 1 for Y  read from file:
     ~/q-e/pseudo/all_pbe_UPF_v1.5/y_pbe_v1.4.uspp.F.UPF
     MD5 check sum: Not computed, couldn't open file
     Pseudo is Ultrasoft + core correction, Zval = 11.0
     Generated by new atomic code, or converted to UPF format
     Using radial grid of  885 points,  6 beta functions with:
                l(1) =   0
                l(2) =   0
                l(3) =   1
                l(4) =   1
                l(5) =   2
                l(6) =   2
     Q(r) pseudized with  8 coefficients,  rinner =    1.200   1.200   1.200
                                                       1.200   1.200

     PseudoPot. # 2 for Ba read from file:
     ~/q-e/pseudo/all_pbe_UPF_v1.5/ba_pbe_v1.uspp.F.UPF
     MD5 check sum: Not computed, couldn't open file
     Pseudo is Ultrasoft + core correction, Zval = 10.0
     Generated by new atomic code, or converted to UPF format
     Using radial grid of  907 points,  7 beta functions with:
                l(1) =   0
                l(2) =   0
                l(3) =   1
                l(4) =   1
                l(5) =   2
                l(6) =   2
                l(7) =   3
     Q(r) pseudized with  6 coefficients,  rinner =    1.700   1.700   1.700
                                                       1.700   1.700   1.700
                                                       1.700

     PseudoPot. # 3 for Cu read from file:
     ~/q-e/pseudo/all_pbe_UPF_v1.5/cu_pbe_v1.2.uspp.F.UPF
     MD5 check sum: Not computed, couldn't open file
     Pseudo is Ultrasoft + core correction, Zval = 19.0
     Generated by new atomic code, or converted to UPF format
     Using radial grid of  867 points,  6 beta functions with:
                l(1) =   0
                l(2) =   0
                l(3) =   1
                l(4) =   1
                l(5) =   2
                l(6) =   2
     Q(r) pseudized with  8 coefficients,  rinner =    1.150   1.150   1.150
                                                       1.150   1.150

[...]

     PseudoPot. # 5 for Cu read from file:
     ~/q-e/pseudo/all_pbe_UPF_v1.5/cu_pbe_v1.2.uspp.F.UPF
     MD5 check sum: Not computed, couldn't open file
     Pseudo is Ultrasoft + core correction, Zval = 19.0
     Generated by new atomic code, or converted to UPF format
     Using radial grid of  867 points,  6 beta functions with:
                l(1) =   0
                l(2) =   0
                l(3) =   1
                l(4) =   1
                l(5) =   2
                l(6) =   2
     Q(r) pseudized with  8 coefficients,  rinner =    1.150   1.150   1.150
                                                       1.150   1.150

     PseudoPot. # 6 for O  read from file:
     ~/q-e/pseudo/all_pbe_UPF_v1.5/o_pbe_v1.2.uspp.F.UPF
     MD5 check sum: Not computed, couldn't open file
     Pseudo is Ultrasoft + core correction, Zval =  6.0
     Generated by new atomic code, or converted to UPF format
     Using radial grid of  737 points,  5 beta functions with:
                l(1) =   0
                l(2) =   0
                l(3) =   1
                l(4) =   1
                l(5) =   2
     Q(r) pseudized with  8 coefficients,  rinner =    0.900   0.900   0.900
                                                       0.900   0.900

     atomic species   valence    mass     pseudopotential
     Y                11.00    88.90584     Y ( 1.00)
     Ba               10.00   137.32700     Ba( 1.00)
     Cu               19.00    63.54600     Cu( 1.00)
     Cu1              19.00    63.54600     Cu( 1.00)
     Cu2              19.00    63.54600     Cu( 1.00)
     O                 6.00    15.99900     O ( 1.00)

     Starting magnetic structure
     atomic species   magnetization
     Y               0.000
     Ba              0.000
     Cu              0.000
     Cu1             0.100
     Cu2            -0.100
     O               0.000

      8 Sym. Ops. (no inversion) found

                                    s                        frac. trans.

      isym =  1     identity

 cryst.   s( 1) = (     1          0          0      )
                  (     0          1          0      )
                  (     0          0          1      )

 cart.    s( 1) = (  1.0000000  0.0000000  0.0000000 )
                  (  0.0000000  1.0000000  0.0000000 )
                  (  0.0000000  0.0000000  1.0000000 )

      isym =  2     180 deg rotation - cart. axis [0,0,1]

[...]

      isym =  4      90 deg rotation - cart. axis [0,0,1]

[...]

      isym =  5     inv. 180 deg rotation - cart. axis [0,1,0]

[...]

      isym =  8     inv. 180 deg rotation - cart. axis [1,-1,0]

 cryst.   s( 8) = (     0          1          0      )
                  (     1          0          0      )
                  (     0          0          1      )

 cart.    s( 8) = (  0.0000000  1.0000000  0.0000000 )
                  (  1.0000000  0.0000000  0.0000000 )
                  (  0.0000000  0.0000000  1.0000000 )

     point group C_4v (4mm)
     there are  5 classes
     the character table:

       E     2C4   C2    2s_v  2s_d
A_1    1.00  1.00  1.00  1.00  1.00
A_2    1.00  1.00  1.00 -1.00 -1.00
B_1    1.00 -1.00  1.00  1.00 -1.00
B_2    1.00 -1.00  1.00 -1.00  1.00
E      2.00  0.00 -2.00  0.00  0.00

     the symmetry operations in each class and the name of the first element:

     E        1
          identity
     2C4      3    4
           90 deg rotation - cart. axis [0,0,-1]
     C2       2
          180 deg rotation - cart. axis [0,0,1]
     2s_v     5    6
          inv. 180 deg rotation - cart. axis [0,1,0]
     2s_d     7    8
          inv. 180 deg rotation - cart. axis [1,1,0]

   Cartesian axes

     site n.     atom                  positions (alat units)
         1        Y      tau(   1) = (   0.2500000   0.2500000   0.7624455  )
         2        Y      tau(   2) = (   0.2500000   0.7500000   0.7624455  )
         3        Y      tau(   3) = (   0.7500000   0.2500000   0.7624455  )
         4        Y      tau(   4) = (   0.7500000   0.7500000   0.7624455  )
         5        Ba     tau(   5) = (   0.2500000   0.2500000   0.2966571  )
         6        Ba     tau(   6) = (   0.2500000   0.2500000   1.2282339  )
         7        Ba     tau(   7) = (   0.2500000   0.7500000   0.2966571  )
         8        Ba     tau(   8) = (   0.2500000   0.7500000   1.2282339  )
         9        Ba     tau(   9) = (   0.7500000   0.2500000   0.2966571  )
        10        Ba     tau(  10) = (   0.7500000   0.2500000   1.2282339  )
        11        Ba     tau(  11) = (   0.7500000   0.7500000   0.2966571  )
        12        Ba     tau(  12) = (   0.7500000   0.7500000   1.2282339  )
        13        Cu     tau(  13) = (   0.0000000   0.0000000   0.0000000  )
        14        Cu1    tau(  14) = (   0.0000000   0.0000000   0.5526369  )
        15        Cu2    tau(  15) = (   0.0000000   0.0000000   0.9722541  )
        16        Cu     tau(  16) = (   0.0000000   0.5000000   0.0000000  )
        17        Cu2    tau(  17) = (   0.0000000   0.5000000   0.5526369  )
        18        Cu1    tau(  18) = (   0.0000000   0.5000000   0.9722541  )
        19        Cu     tau(  19) = (   0.5000000   0.0000000   0.0000000  )
        20        Cu2    tau(  20) = (   0.5000000   0.0000000   0.5526369  )
        21        Cu1    tau(  21) = (   0.5000000   0.0000000   0.9722541  )
        22        Cu     tau(  22) = (   0.5000000   0.5000000   0.0000000  )
        23        Cu1    tau(  23) = (   0.5000000   0.5000000   0.5526369  )
        24        Cu2    tau(  24) = (   0.5000000   0.5000000   0.9722541  )
        25        O      tau(  25) = (   0.0000000   0.0000000   0.2314064  )
        26        O      tau(  26) = (   0.0000000   0.0000000   1.2934846  )
        27        O      tau(  27) = (   0.5000000   0.0000000   0.2314064  )
        28        O      tau(  28) = (   0.5000000   0.0000000   1.2934846  )
        29        O      tau(  29) = (   0.0000000   0.5000000   0.2314064  )
        30        O      tau(  30) = (   0.0000000   0.5000000   1.2934846  )
        31        O      tau(  31) = (   0.5000000   0.5000000   0.2314064  )
        32        O      tau(  32) = (   0.5000000   0.5000000   1.2934846  )
        33        O      tau(  33) = (   0.2500000   0.0000000   0.5769788  )
        34        O      tau(  34) = (   0.2500000   0.0000000   0.9479122  )
        35        O      tau(  35) = (   0.2500000   0.5000000   0.5769788  )
        36        O      tau(  36) = (   0.2500000   0.5000000   0.9479122  )
        37        O      tau(  37) = (   0.7500000   0.0000000   0.5769788  )
        38        O      tau(  38) = (   0.7500000   0.0000000   0.9479122  )
        39        O      tau(  39) = (   0.7500000   0.5000000   0.5769788  )
        40        O      tau(  40) = (   0.7500000   0.5000000   0.9479122  )
        41        O      tau(  41) = (   0.0000000   0.2500000   0.5769788  )
[...]
      -0.000  0.981 -0.000  0.000  0.000
      -0.000 -0.000  0.981  0.000  0.000
       0.000  0.000  0.000  0.545 -0.000
       0.000  0.000  0.000 -0.000  0.986
     ------------------------ ATOM   24 ------------------------
     Tr[ns( 24)] (up, down, total) =   4.43337  4.82636  9.25973
     Atomic magnetic moment for atom  24 =  -0.39299
     SPIN  1
     eigenvalues:
       0.545  0.941  0.981  0.981  0.986
     eigenvectors (columns):
      -0.000  1.000 -0.000 -0.000  0.000
      -0.000  0.000  0.369  0.929  0.000
      -0.000  0.000  0.929 -0.369  0.000
       1.000  0.000  0.000  0.000 -0.000
       0.000 -0.000 -0.000 -0.000  1.000
     occupation matrix ns (before diag.):
       0.941 -0.000 -0.000  0.000  0.000
      -0.000  0.981 -0.000  0.000  0.000
      -0.000 -0.000  0.981  0.000  0.000
       0.000  0.000  0.000  0.545 -0.000
       0.000  0.000  0.000 -0.000  0.986
     SPIN  2
     eigenvalues:
       0.917  0.955  0.983  0.983  0.988
     eigenvectors (columns):
      -0.000  1.000 -0.000 -0.000  0.000
      -0.000  0.000  0.333  0.943  0.000
      -0.000  0.000  0.943 -0.333  0.000
       1.000  0.000  0.000  0.000 -0.000
       0.000 -0.000 -0.000 -0.000  1.000
     occupation matrix ns (before diag.):
       0.955 -0.000 -0.000  0.000  0.000
      -0.000  0.983 -0.000  0.000  0.000
      -0.000 -0.000  0.983  0.000  0.000
       0.000  0.000  0.000  0.917 -0.000
       0.000  0.000  0.000 -0.000  0.988

     Number of occupied Hubbard levels =   74.0778

     negative rho (up, down):  3.432E-01 3.432E-01

     HUBBARD ENERGY =    0.3817  (Ry)

     Magnetic moment per site  (integrated on atomic sphere of radius R)
     atom   1 (R=0.128)  charge=  7.5342  magn= -0.0000
     atom   2 (R=0.128)  charge=  7.5342  magn= -0.0000
     atom   3 (R=0.128)  charge=  7.5342  magn= -0.0000
     atom   4 (R=0.128)  charge=  7.5342  magn= -0.0000
     atom   5 (R=0.148)  charge=  6.6012  magn=  0.0000
     atom   6 (R=0.148)  charge=  6.6012  magn=  0.0000
     atom   7 (R=0.148)  charge=  6.6012  magn=  0.0000
     atom   8 (R=0.148)  charge=  6.6012  magn=  0.0000
     atom   9 (R=0.148)  charge=  6.6012  magn=  0.0000
     atom  10 (R=0.148)  charge=  6.6012  magn=  0.0000
     atom  11 (R=0.148)  charge=  6.6012  magn=  0.0000
     atom  12 (R=0.148)  charge=  6.6012  magn=  0.0000
     atom  13 (R=0.095)  charge= 15.9311  magn=  0.0005
     atom  14 (R=0.104)  charge= 16.3557  magn=  0.3954
     atom  15 (R=0.104)  charge= 16.3557  magn= -0.3954
     atom  16 (R=0.095)  charge= 15.9311  magn= -0.0003
     atom  17 (R=0.104)  charge= 16.3557  magn= -0.3954
     atom  18 (R=0.104)  charge= 16.3557  magn=  0.3954
     atom  19 (R=0.095)  charge= 15.9311  magn= -0.0003
     atom  20 (R=0.104)  charge= 16.3557  magn= -0.3954
     atom  21 (R=0.104)  charge= 16.3557  magn=  0.3954
     atom  22 (R=0.095)  charge= 15.9311  magn=  0.0005
     atom  23 (R=0.104)  charge= 16.3557  magn=  0.3954
     atom  24 (R=0.104)  charge= 16.3557  magn= -0.3954
     atom  25 (R=0.095)  charge=  4.8363  magn= -0.0019
     atom  26 (R=0.095)  charge=  4.8363  magn=  0.0023
     atom  27 (R=0.095)  charge=  4.8363  magn=  0.0020
     atom  28 (R=0.095)  charge=  4.8363  magn= -0.0022
     atom  29 (R=0.095)  charge=  4.8363  magn=  0.0020
     atom  30 (R=0.095)  charge=  4.8363  magn= -0.0022
     atom  31 (R=0.095)  charge=  4.8363  magn= -0.0019
     atom  32 (R=0.095)  charge=  4.8363  magn=  0.0023
     atom  33 (R=0.095)  charge=  4.8865  magn= -0.0000
     atom  34 (R=0.095)  charge=  4.8865  magn= -0.0000
     atom  35 (R=0.095)  charge=  4.8865  magn= -0.0000
     atom  36 (R=0.095)  charge=  4.8865  magn= -0.0000
     atom  37 (R=0.095)  charge=  4.8865  magn= -0.0000
     atom  38 (R=0.095)  charge=  4.8865  magn= -0.0000
     atom  39 (R=0.095)  charge=  4.8865  magn= -0.0000
     atom  40 (R=0.095)  charge=  4.8865  magn= -0.0000
     atom  41 (R=0.095)  charge=  4.8865  magn= -0.0000
     atom  42 (R=0.095)  charge=  4.8865  magn= -0.0000
     atom  43 (R=0.095)  charge=  4.8865  magn= -0.0000
     atom  44 (R=0.095)  charge=  4.8865  magn= -0.0000
     atom  45 (R=0.095)  charge=  4.8865  magn= -0.0000
     atom  46 (R=0.095)  charge=  4.8865  magn= -0.0000
     atom  47 (R=0.095)  charge=  4.8865  magn= -0.0000
     atom  48 (R=0.095)  charge=  4.8865  magn= -0.0000

     End of self-consistent calculation

 ------ SPIN UP ------------

          k = 0.0000 0.0000 0.0000 ( 35361 PWs)   bands (ev):

  -101.2063-101.2062-101.2059-101.2059-100.5905-100.5905-100.5903-100.5903
  -100.4282-100.4282-100.4278-100.4278 -58.8325 -58.8325 -58.8325 -58.8325
   -58.8322 -58.8322 -58.8322 -58.8322 -58.1353 -58.1353 -58.1350 -58.1350
   -58.0975 -58.0975 -58.0975 -58.0975 -58.0973 -58.0973 -58.0973 -58.0973
   -58.0130 -58.0130 -58.0124 -58.0124 -57.8417 -57.8417 -57.8415 -57.8415
   -57.7387 -57.7387 -57.7387 -57.7387 -57.7383 -57.7383 -57.7383 -57.7383
   -29.8453 -29.8280 -29.8280 -29.8112 -14.9966 -14.9901 -14.8524 -14.8524
   -14.8474 -14.8474 -14.7423 -14.7370 -10.5939 -10.5939 -10.5770 -10.5264
   -10.5264 -10.2632 -10.2632  -9.9895  -9.8692  -9.8692  -9.8461  -9.8461
    -7.4968  -6.8007  -6.8007  -6.6409  -6.6409  -6.4599  -6.4599  -6.4014
    -6.4012  -6.3393  -6.2360  -6.0514  -5.9798  -5.9718  -5.9716  -5.9652
    -5.9651  -5.9428  -5.8986  -5.8986  -5.7964  -5.7964  -5.7295  -5.6449
    -0.7423  -0.7423  -0.7282  -0.7282  -0.3888  -0.3811  -0.3745  -0.3745
    -0.2079  -0.2016  -0.2016  -0.1662  -0.0403  -0.0402   0.0398   0.0398
     0.1348   0.1348   0.1385   0.1385   0.3773   0.3773   0.3851   0.3851
     3.6047   4.2171   4.5611   4.5613   5.0961   5.0962   5.1986   5.2756
     5.3192   5.8912   5.9525   5.9525   6.0324   6.0324   6.0539   6.0540
     6.0647   6.1101   6.1463   6.2193   6.2195   6.3174   6.3174   6.4341
     6.4341   6.5961   6.5961   6.5992   6.5992   6.7893   6.7893   6.9053
     6.9053   7.0220   7.0220   7.2626   7.2782   7.2782   7.4161   7.4161
     7.4612   7.4925   7.4991   7.5214   7.5526   7.5527   7.6528   7.6528
     7.6623   7.6623   7.9000   7.9000   7.9544   7.9544   7.9814   7.9872
     7.9872   8.0535   8.0535   8.0550   8.0550   8.1054   8.1054   8.2381
     8.2699   8.2699   8.3272   8.3272   8.6336   8.6336   8.6512   8.6826
     8.6827   8.6953   8.7577   8.7577   8.9244   9.0998   9.0998   9.1799
     9.1799   9.1827   9.1827   9.2245   9.2631   9.2632   9.3197   9.3199
     9.3225   9.3309   9.3309   9.4444   9.4533   9.5152   9.5155   9.5163
     9.5571   9.5573   9.5921   9.6097   9.6671   9.7187   9.7187   9.7218
     9.7359   9.7838   9.8012   9.8012   9.9383   9.9383   9.9502   9.9502
    10.0342  10.0343  10.0990  10.1704  10.1704  10.1717  10.1719  10.5777
    10.6972  10.6972  10.7375  10.7375  11.1472  11.1472  11.2371  11.2371
    11.4028  11.4028  13.0471  13.0471  13.5054  13.5765  13.6241  13.9814
    14.1277  14.1277  14.3303  14.5215  14.6476  15.5761  15.6893  15.6894
    15.7378  15.7630  15.7630  16.2050  16.2050  16.3441  16.4004  16.6695
    16.6695  16.8159  16.8159  16.8997  16.8997  16.9278  16.9367  17.0136
    17.0136  17.0589  17.0589  17.0659  17.1729  17.1730  17.2322  17.4852
    17.6180  17.6181  18.0344  18.0344  18.1496  18.1496  18.2686  18.3172
    18.3172  18.4192

     occupation numbers
     1.0000   1.0000   1.0000   1.0000   1.0000   1.0000   1.0000   1.0000
     1.0000   1.0000   1.0000   1.0000   1.0000   1.0000   1.0000   1.0000
     1.0000   1.0000   1.0000   1.0000   1.0000   1.0000   1.0000   1.0000
     1.0000   1.0000   1.0000   1.0000   1.0000   1.0000   1.0000   1.0000
     1.0000   1.0000   1.0000   1.0000   1.0000   1.0000   1.0000   1.0000
     1.0000   1.0000   1.0000   1.0000   1.0000   1.0000   1.0000   1.0000
     1.0000   1.0000   1.0000   1.0000   1.0000   1.0000   1.0000   1.0000
     1.0000   1.0000   1.0000   1.0000   1.0000   1.0000   1.0000   1.0000
     1.0000   1.0000   1.0000   1.0000   1.0000   1.0000   1.0000   1.0000
     1.0000   1.0000   1.0000   1.0000   1.0000   1.0000   1.0000   1.0000
     1.0000   1.0000   1.0000   1.0000   1.0000   1.0000   1.0000   1.0000
     1.0000   1.0000   1.0000   1.0000   1.0000   1.0000   1.0000   1.0000
     1.0000   1.0000   1.0000   1.0000   1.0000   1.0000   1.0000   1.0000
     1.0000   1.0000   1.0000   1.0000   1.0000   1.0000   1.0000   1.0000
     1.0000   1.0000   1.0000   1.0000   1.0000   1.0000   1.0000   1.0000
     1.0000   1.0000   1.0000   1.0000   1.0000   1.0000   1.0000   1.0000
     1.0000   1.0000   1.0000   1.0000   1.0000   1.0000   1.0000   1.0000
     1.0000   1.0000   1.0000   1.0000   1.0000   1.0000   1.0000   1.0000
     1.0000   1.0000   1.0000   1.0000   1.0000   1.0000   1.0000   1.0000
     1.0000   1.0000   1.0000   1.0000   1.0000   1.0000   1.0000   1.0000
     1.0000   1.0000   1.0000   1.0000   1.0000   1.0000   1.0000   1.0000
     1.0000   1.0000   1.0000   1.0000   1.0000   1.0000   1.0000   1.0000
     1.0000   1.0000   1.0000   1.0000   1.0000   1.0000   1.0000   1.0000
     1.0000   1.0000   1.0000   1.0000   1.0000   1.0000   1.0000   1.0000
     1.0000   1.0000   1.0000   1.0000   1.0000   1.0000   1.0000   1.0000
     1.0000   1.0000   1.0000   1.0000   1.0000   1.0000   1.0000   1.0000
     1.0000   1.0000   1.0000   1.0000   1.0000   1.0000   1.0000   1.0000
     1.0000   1.0000   1.0000   1.0000   1.0000   1.0000   1.0000   1.0000
     1.0000   1.0000   1.0000   1.0000   1.0000   1.0000   1.0000   1.0000
     1.0000   1.0000   1.0000   1.0000   1.0000   1.0000   1.0000   1.0000
     1.0000   1.0000   1.0000   1.0000   1.0351   1.0351   0.8789   0.8789
     0.0396   0.0396  -0.0000  -0.0000  -0.0000  -0.0000  -0.0000  -0.0000
    -0.0000  -0.0000  -0.0000  -0.0000  -0.0000  -0.0000  -0.0000  -0.0000
    -0.0000  -0.0000  -0.0000  -0.0000  -0.0000  -0.0000  -0.0000  -0.0000
    -0.0000  -0.0000  -0.0000  -0.0000  -0.0000  -0.0000  -0.0000  -0.0000
    -0.0000  -0.0000  -0.0000  -0.0000  -0.0000  -0.0000  -0.0000  -0.0000
    -0.0000  -0.0000  -0.0000  -0.0000  -0.0000  -0.0000  -0.0000  -0.0000
    -0.0000  -0.0000

[...]

 ------ SPIN DOWN ----------

[...]

          k = 0.0000 0.0000-0.3279 ( 35390 PWs)   bands (ev):

  -101.2063-101.2063-101.2060-101.2060-100.5904-100.5904-100.5903-100.5903
  -100.4281-100.4281-100.4276-100.4276 -58.8326 -58.8326 -58.8326 -58.8326
   -58.8322 -58.8322 -58.8322 -58.8322 -58.1353 -58.1353 -58.1351 -58.1351
   -58.0974 -58.0974 -58.0974 -58.0974 -58.0972 -58.0972 -58.0972 -58.0972
   -58.0128 -58.0128 -58.0122 -58.0122 -57.8417 -57.8417 -57.8415 -57.8415
   -57.7386 -57.7386 -57.7386 -57.7386 -57.7381 -57.7381 -57.7381 -57.7381
   -29.8453 -29.8280 -29.8280 -29.8112 -14.9997 -14.9870 -14.8545 -14.8545
   -14.8452 -14.8452 -14.7439 -14.7355 -10.5939 -10.5939 -10.5772 -10.5264
   -10.5264 -10.2633 -10.2633  -9.9896  -9.8692  -9.8692  -9.8461  -9.8461
    -7.4957  -6.8186  -6.8185  -6.6403  -6.6403  -6.4600  -6.4600  -6.3404
    -6.2530  -6.2528  -6.2360  -6.2198  -6.2197  -6.0512  -5.9795  -5.9428
    -5.8993  -5.8993  -5.8474  -5.8473  -5.7964  -5.7964  -5.7295  -5.6453
    -0.7458  -0.7458  -0.7248  -0.7248  -0.3386  -0.3386  -0.3318  -0.3275
    -0.2726  -0.2395  -0.2395  -0.2183  -0.0409  -0.0409   0.0402   0.0402
     0.1308   0.1308   0.1425   0.1425   0.3732   0.3732   0.3893   0.3893
     3.6189   4.1978   4.5634   4.5636   5.0957   5.0958   5.2249   5.2755
     5.3192   5.8700   5.9531   5.9531   6.0304   6.0304   6.0525   6.0526
     6.0934   6.1213   6.1691   6.2304   6.2305   6.3166   6.3166   6.4341
     6.4341   6.5970   6.5970   6.6006   6.6006   6.8514   6.8514   6.9059
     6.9059   7.0239   7.0239   7.2372   7.2372   7.2633   7.2750   7.4152
     7.4152   7.4157   7.4608   7.4994   7.5223   7.5223   7.5311   7.5311
     7.7105   7.7105   7.8915   7.8915   7.9526   7.9526   7.9919   7.9919
     8.0487   8.0487   8.0547   8.0547   8.0940   8.0940   8.1155   8.2434
     8.2434   8.3611   8.3611   8.6396   8.6396   8.6482   8.6524   8.7575
     8.7575   8.8588   8.8589   8.8946   9.0210   9.0214   9.0214   9.1191
     9.1272   9.1272   9.2599   9.2600   9.2917   9.3232   9.3328   9.3328
     9.3617   9.3711   9.3713   9.3768   9.4350   9.4351   9.4383   9.4878
     9.4878   9.5163   9.5229   9.5232   9.5662   9.5662   9.6097   9.6921
     9.6921   9.7219   9.7449   9.8028   9.9338   9.9338   9.9889   9.9891
    10.0334  10.0334  10.0990  10.1880  10.1881  10.2431  10.2431  10.6203
    10.6203  10.6861  10.7366  10.7366  11.1513  11.1513  11.2367  11.2367
    11.3750  11.3750  13.1016  13.1016  13.5053  13.5765  13.9063  14.1389
    14.1389  14.2246  14.3562  14.4172  14.5412  15.5274  15.5627  15.5627
    15.7323  15.7324  15.8020  16.1122  16.1373  16.2055  16.2055  16.4004
    16.5031  16.8143  16.8143  16.9202  16.9202  16.9294  16.9294  16.9312
    16.9312  16.9836  16.9836  17.0605  17.1643  17.1643  17.5788  17.5788
    17.5925  17.5925  17.5958  17.8429  17.8429  18.1831  18.2957  18.2958
    18.5042  18.5042

     occupation numbers
     1.0000   1.0000   1.0000   1.0000   1.0000   1.0000   1.0000   1.0000
     1.0000   1.0000   1.0000   1.0000   1.0000   1.0000   1.0000   1.0000
     1.0000   1.0000   1.0000   1.0000   1.0000   1.0000   1.0000   1.0000
     1.0000   1.0000   1.0000   1.0000   1.0000   1.0000   1.0000   1.0000
     1.0000   1.0000   1.0000   1.0000   1.0000   1.0000   1.0000   1.0000
     1.0000   1.0000   1.0000   1.0000   1.0000   1.0000   1.0000   1.0000
     1.0000   1.0000   1.0000   1.0000   1.0000   1.0000   1.0000   1.0000
     1.0000   1.0000   1.0000   1.0000   1.0000   1.0000   1.0000   1.0000
     1.0000   1.0000   1.0000   1.0000   1.0000   1.0000   1.0000   1.0000
     1.0000   1.0000   1.0000   1.0000   1.0000   1.0000   1.0000   1.0000
     1.0000   1.0000   1.0000   1.0000   1.0000   1.0000   1.0000   1.0000
     1.0000   1.0000   1.0000   1.0000   1.0000   1.0000   1.0000   1.0000
     1.0000   1.0000   1.0000   1.0000   1.0000   1.0000   1.0000   1.0000
     1.0000   1.0000   1.0000   1.0000   1.0000   1.0000   1.0000   1.0000
     1.0000   1.0000   1.0000   1.0000   1.0000   1.0000   1.0000   1.0000
     1.0000   1.0000   1.0000   1.0000   1.0000   1.0000   1.0000   1.0000
     1.0000   1.0000   1.0000   1.0000   1.0000   1.0000   1.0000   1.0000
     1.0000   1.0000   1.0000   1.0000   1.0000   1.0000   1.0000   1.0000
     1.0000   1.0000   1.0000   1.0000   1.0000   1.0000   1.0000   1.0000
     1.0000   1.0000   1.0000   1.0000   1.0000   1.0000   1.0000   1.0000
     1.0000   1.0000   1.0000   1.0000   1.0000   1.0000   1.0000   1.0000
     1.0000   1.0000   1.0000   1.0000   1.0000   1.0000   1.0000   1.0000
     1.0000   1.0000   1.0000   1.0000   1.0000   1.0000   1.0000   1.0000
     1.0000   1.0000   1.0000   1.0000   1.0000   1.0000   1.0000   1.0000
     1.0000   1.0000   1.0000   1.0000   1.0000   1.0000   1.0000   1.0000
     1.0000   1.0000   1.0000   1.0000   1.0000   1.0000   1.0000   1.0000
     1.0000   1.0000   1.0000   1.0000   1.0000   1.0000   1.0000   1.0000
     1.0000   1.0000   1.0000   1.0000   1.0000   1.0000   1.0000   1.0000
     1.0000   1.0000   1.0000   1.0000   1.0000   1.0000   1.0000   1.0000
     1.0000   1.0000   1.0000   1.0000   1.0000   1.0000   1.0000   1.0000
     1.0000   1.0000   1.0000   1.0000   1.0344   1.0344   0.8805   0.8805
     0.1315   0.1315  -0.0000  -0.0000  -0.0000  -0.0000  -0.0000  -0.0000
    -0.0000  -0.0000  -0.0000  -0.0000  -0.0000  -0.0000  -0.0000  -0.0000
    -0.0000  -0.0000  -0.0000  -0.0000  -0.0000  -0.0000  -0.0000  -0.0000
    -0.0000  -0.0000  -0.0000  -0.0000  -0.0000  -0.0000  -0.0000  -0.0000
    -0.0000  -0.0000  -0.0000  -0.0000  -0.0000  -0.0000  -0.0000  -0.0000
    -0.0000  -0.0000  -0.0000  -0.0000  -0.0000  -0.0000  -0.0000  -0.0000
    -0.0000  -0.0000

     the Fermi energy is    11.3073 ev

!    total energy              =   -6556.70410072 Ry
     estimated scf accuracy    <          7.6E-09 Ry
     smearing contrib. (-TS)   =      -0.00065761 Ry
     internal energy E=F+TS    =   -6556.70344311 Ry

     The total energy is F=E-TS. E is the sum of the following terms:
     one-electron contribution =   -5518.80174092 Ry
     hartree contribution      =    3045.18374722 Ry
     xc contribution           =    -976.02343314 Ry
     ewald contribution        =   -3107.44375877 Ry
     Hubbard energy            =       0.38174251 Ry

     total magnetization       =     0.00 Bohr mag/cell
     absolute magnetization    =     4.37 Bohr mag/cell

     convergence has been achieved in  37 iterations

     Writing all to output data dir ./YBCO6/YBCO6.save/

     General routines

     Parallel routines

     Hubbard U routines

   This run was terminated on:  22:19:17   1Jan2024

   JOB DONE.