     Program PWSCF v.7.2 starts on  9Dec2023 at 15:24:58

     Waiting for input...
     Reading input from standard input
Warning: card &CELL ignored
Warning: card / ignored

     Current dimensions of program PWSCF are:
     Max number of different atomic species (ntypx) = 10
     Max number of k-points (npk) =  40000
     Max angular momentum in pseudopotentials (lmaxx) =  4

     File ./YBCO.relax/YBCO.relax.update deleted, as requested

     File ./YBCO.relax/YBCO.relax.bfgs deleted, as requested
     Found identity + ( -0.5000 -0.5000  0.0000) symmetry
     This is a supercell, fractional translations are disabled

     R & G space division:  proc/nbgrp/npool/nimage =       4
     Subspace diagonalization in iterative solution of the eigenvalue problem:
     one sub-group per band group will be used

     Using Slab Decomposition

     bravais-lattice index     =            6
     lattice parameter (alat)  =      14.7368  a.u.
     unit-cell volume          =    4973.6681 (a.u.)^3
     number of atoms/cell      =           48
     number of atomic types    =            6
     number of electrons       =       496.00
     number of Kohn-Sham states=          298
     kinetic-energy cutoff     =      90.0000  Ry
     charge density cutoff     =     720.0000  Ry
     scf convergence threshold =      1.0E-08
     mixing beta               =       0.1000
     number of iterations used =            8  plain     mixing
     energy convergence thresh.=      1.0E-04
     force convergence thresh. =      1.0E-03
     Exchange-correlation= SLA  PW   PBE  PBE
                           (   1   4   3   4   0   0   0)
     nstep                     =           50

     Hubbard projectors: ortho-atomic
     Hubbard parameters of DFT+U (Dudarev formulation) in eV:
     U(Cu1-3d) = 10.0000
     U(Cu2-3d) = 10.0000

     Internal variables: lda_plus_u = T, lda_plus_u_kind = 0

     celldm(1)=  14.736798  celldm(2)=   0.000000  celldm(3)=   1.554059
     celldm(4)=   0.000000  celldm(5)=   0.000000  celldm(6)=   0.000000

     crystal axes: (cart. coord. in units of alat)
               a(1) = (   1.000000   0.000000   0.000000 )
               a(2) = (   0.000000   1.000000   0.000000 )
               a(3) = (   0.000000   0.000000   1.554059 )

     reciprocal axes: (cart. coord. in units 2 pi/alat)
               b(1) = (  1.000000  0.000000  0.000000 )
               b(2) = (  0.000000  1.000000  0.000000 )
               b(3) = (  0.000000  0.000000  0.643476 )

     PseudoPot. # 1 for Y  read from file:
     ~/q-e/pseudo/all_pbe_UPF_v1.5/y_pbe_v1.4.uspp.F.UPF
     MD5 check sum: Not computed, couldn't open file
     Pseudo is Ultrasoft + core correction, Zval = 11.0
     Generated by new atomic code, or converted to UPF format
     Using radial grid of  885 points,  6 beta functions with:
                l(1) =   0
                l(2) =   0
                l(3) =   1
                l(4) =   1
                l(5) =   2
                l(6) =   2
     Q(r) pseudized with  8 coefficients,  rinner =    1.200   1.200   1.200
                                                       1.200   1.200

     PseudoPot. # 2 for Ba read from file:
     ~/q-e/pseudo/all_pbe_UPF_v1.5/ba_pbe_v1.uspp.F.UPF
     MD5 check sum: Not computed, couldn't open file
     Pseudo is Ultrasoft + core correction, Zval = 10.0
     Generated by new atomic code, or converted to UPF format
     Using radial grid of  907 points,  7 beta functions with:
                l(1) =   0
                l(2) =   0
                l(3) =   1
                l(4) =   1
                l(5) =   2
                l(6) =   2
                l(7) =   3
     Q(r) pseudized with  6 coefficients,  rinner =    1.700   1.700   1.700
                                                       1.700   1.700   1.700
                                                       1.700

     PseudoPot. # 3 for Cu read from file:
     ~/q-e/pseudo/all_pbe_UPF_v1.5/cu_pbe_v1.2.uspp.F.UPF
     MD5 check sum: Not computed, couldn't open file
     Pseudo is Ultrasoft + core correction, Zval = 19.0
     Generated by new atomic code, or converted to UPF format
     Using radial grid of  867 points,  6 beta functions with:
                l(1) =   0
                l(2) =   0
                l(3) =   1
                l(4) =   1
                l(5) =   2
                l(6) =   2
     Q(r) pseudized with  8 coefficients,  rinner =    1.150   1.150   1.150
                                                       1.150   1.150

[...]

     PseudoPot. # 5 for Cu read from file:
     ~/q-e/pseudo/all_pbe_UPF_v1.5/cu_pbe_v1.2.uspp.F.UPF
     MD5 check sum: Not computed, couldn't open file
     Pseudo is Ultrasoft + core correction, Zval = 19.0
     Generated by new atomic code, or converted to UPF format
     Using radial grid of  867 points,  6 beta functions with:
                l(1) =   0
                l(2) =   0
                l(3) =   1
                l(4) =   1
                l(5) =   2
                l(6) =   2
     Q(r) pseudized with  8 coefficients,  rinner =    1.150   1.150   1.150
                                                       1.150   1.150

     PseudoPot. # 6 for O  read from file:
     ~/q-e/pseudo/all_pbe_UPF_v1.5/o_pbe_v1.2.uspp.F.UPF
     MD5 check sum: Not computed, couldn't open file
     Pseudo is Ultrasoft + core correction, Zval =  6.0
     Generated by new atomic code, or converted to UPF format
     Using radial grid of  737 points,  5 beta functions with:
                l(1) =   0
                l(2) =   0
                l(3) =   1
                l(4) =   1
                l(5) =   2
     Q(r) pseudized with  8 coefficients,  rinner =    0.900   0.900   0.900
                                                       0.900   0.900

     atomic species   valence    mass     pseudopotential
     Y                11.00    88.90584     Y ( 1.00)
     Ba               10.00   137.32700     Ba( 1.00)
     Cu               19.00    63.54600     Cu( 1.00)
     Cu1              19.00    63.54600     Cu( 1.00)
     Cu2              19.00    63.54600     Cu( 1.00)
     O                 6.00    15.99900     O ( 1.00)

      4 Sym. Ops. (no inversion) found

                                    s                        frac. trans.

      isym =  1     identity

 cryst.   s( 1) = (     1          0          0      )
                  (     0          1          0      )
                  (     0          0          1      )

 cart.    s( 1) = (  1.0000000  0.0000000  0.0000000 )
                  (  0.0000000  1.0000000  0.0000000 )
                  (  0.0000000  0.0000000  1.0000000 )

      isym =  2     180 deg rotation - cart. axis [0,0,1]

[...]

      isym =  3     inv. 180 deg rotation - cart. axis [0,1,0]

[...]

      isym =  4     inv. 180 deg rotation - cart. axis [1,0,0]

 cryst.   s( 4) = (    -1          0          0      )
                  (     0          1          0      )
                  (     0          0          1      )

 cart.    s( 4) = ( -1.0000000  0.0000000  0.0000000 )
                  (  0.0000000  1.0000000  0.0000000 )
                  (  0.0000000  0.0000000  1.0000000 )

     point group C_2v (mm2)
     there are  4 classes
     the character table:

       E     C2    s_v   s_v'
A_1    1.00  1.00  1.00  1.00
A_2    1.00  1.00 -1.00 -1.00
B_1    1.00 -1.00  1.00 -1.00
B_2    1.00 -1.00 -1.00  1.00

     the symmetry operations in each class and the name of the first element:

     E        1
          identity
     C2       2
          180 deg rotation - cart. axis [0,0,1]
     s_v      4
          inv. 180 deg rotation - cart. axis [1,0,0]
     s_v'     3
          inv. 180 deg rotation - cart. axis [0,1,0]

   Cartesian axes

     site n.     atom                  positions (alat units)
         1        Y      tau(   1) = (   0.2500000   0.2500000   0.7770293  )
         2        Y      tau(   2) = (   0.2500000   0.7500000   0.7770293  )
         3        Y      tau(   3) = (   0.7500000   0.2500000   0.7770293  )
         4        Y      tau(   4) = (   0.7500000   0.7500000   0.7770293  )
         5        Ba     tau(   5) = (   0.2500000   0.2500000   0.2858380  )
         6        Ba     tau(   6) = (   0.2500000   0.2500000   1.2682207  )
         7        Ba     tau(   7) = (   0.2500000   0.7500000   0.2858380  )
         8        Ba     tau(   8) = (   0.2500000   0.7500000   1.2682207  )
         9        Ba     tau(   9) = (   0.7500000   0.2500000   0.2858380  )
        10        Ba     tau(  10) = (   0.7500000   0.2500000   1.2682207  )
        11        Ba     tau(  11) = (   0.7500000   0.7500000   0.2858380  )
        12        Ba     tau(  12) = (   0.7500000   0.7500000   1.2682207  )
        13        Cu     tau(  13) = (   0.0000000   0.0000000   0.0000000  )
        14        Cu1    tau(  14) = (   0.0000000   0.0000000   0.5517064  )
        15        Cu2    tau(  15) = (   0.0000000   0.0000000   1.0023523  )
        16        Cu     tau(  16) = (   0.0000000   0.5000000   0.0000000  )
        17        Cu2    tau(  17) = (   0.0000000   0.5000000   0.5517064  )
        18        Cu1    tau(  18) = (   0.0000000   0.5000000   1.0023523  )
        19        Cu     tau(  19) = (   0.5000000   0.0000000   0.0000000  )
        20        Cu2    tau(  20) = (   0.5000000   0.0000000   0.5517064  )
        21        Cu1    tau(  21) = (   0.5000000   0.0000000   1.0023523  )
        22        Cu     tau(  22) = (   0.5000000   0.5000000   0.0000000  )
        23        Cu1    tau(  23) = (   0.5000000   0.5000000   0.5517064  )
        24        Cu2    tau(  24) = (   0.5000000   0.5000000   1.0023523  )
        25        O      tau(  25) = (   0.0000000   0.0000000   0.2461629  )
        26        O      tau(  26) = (   0.0000000   0.0000000   1.3078958  )
        27        O      tau(  27) = (   0.5000000   0.0000000   0.2461629  )
        28        O      tau(  28) = (   0.5000000   0.0000000   1.3078958  )
        29        O      tau(  29) = (   0.0000000   0.5000000   0.2461629  )
        30        O      tau(  30) = (   0.0000000   0.5000000   1.3078958  )
        31        O      tau(  31) = (   0.5000000   0.5000000   0.2461629  )
        32        O      tau(  32) = (   0.5000000   0.5000000   1.3078958  )
        33        O      tau(  33) = (   0.2500000   0.0000000   0.5877295  )
        34        O      tau(  34) = (   0.2500000   0.0000000   0.9663292  )
        35        O      tau(  35) = (   0.2500000   0.5000000   0.5877295  )
        36        O      tau(  36) = (   0.2500000   0.5000000   0.9663292  )
        37        O      tau(  37) = (   0.7500000   0.0000000   0.5877295  )
        38        O      tau(  38) = (   0.7500000   0.0000000   0.9663292  )
        39        O      tau(  39) = (   0.7500000   0.5000000   0.5877295  )
        40        O      tau(  40) = (   0.7500000   0.5000000   0.9663292  )
        41        O      tau(  41) = (   0.0000000   0.2500000   0.5857713  )
        42        O      tau(  42) = (   0.0000000   0.2500000   0.9682874  )
        43        O      tau(  43) = (   0.5000000   0.2500000   0.5857713  )
[...]
     atom   29 type  6   force =     0.00000000   -0.00000000    1.48783847
     atom   30 type  6   force =     0.00000000   -0.00000000   -1.48768520
     atom   31 type  6   force =     0.00000000    0.00000000    1.48785037
     atom   32 type  6   force =    -0.00000000   -0.00000000   -1.48771872
     atom   33 type  6   force =    -0.00020311    0.00000000   13.86318957
     atom   34 type  6   force =    -0.00020128   -0.00000000  -13.86336275
     atom   35 type  6   force =    -0.00019911   -0.00000000   13.86315504
     atom   36 type  6   force =    -0.00020177    0.00000000  -13.86332994
     atom   37 type  6   force =     0.00020311   -0.00000000   13.86318957
     atom   38 type  6   force =     0.00020128    0.00000000  -13.86336275
     atom   39 type  6   force =     0.00019911    0.00000000   13.86315504
     atom   40 type  6   force =     0.00020177   -0.00000000  -13.86332994
     atom   41 type  6   force =     0.00000000   -0.00020422   13.85954794
     atom   42 type  6   force =    -0.00000000   -0.00020203  -13.85972284
     atom   43 type  6   force =    -0.00000000   -0.00020011   13.85951660
     atom   44 type  6   force =     0.00000000   -0.00020271  -13.85968659
     atom   45 type  6   force =    -0.00000000    0.00020422   13.85954794
     atom   46 type  6   force =     0.00000000    0.00020203  -13.85972284
     atom   47 type  6   force =     0.00000000    0.00020011   13.85951660
     atom   48 type  6   force =    -0.00000000    0.00020271  -13.85968659
     The core correction contribution to forces
     atom    1 type  1   force =     0.00000001    0.00000001    0.00000001
     atom    2 type  1   force =     0.00000001   -0.00000001    0.00000001
     atom    3 type  1   force =    -0.00000001    0.00000001    0.00000001
     atom    4 type  1   force =    -0.00000001   -0.00000001    0.00000001
     atom    5 type  2   force =    -0.00000002   -0.00000002    0.00047735
     atom    6 type  2   force =    -0.00000002   -0.00000002   -0.00047735
     atom    7 type  2   force =    -0.00000002    0.00000002    0.00047735
     atom    8 type  2   force =    -0.00000002    0.00000002   -0.00047735
     atom    9 type  2   force =     0.00000002   -0.00000002    0.00047735
     atom   10 type  2   force =     0.00000002   -0.00000002   -0.00047735
     atom   11 type  2   force =     0.00000002    0.00000002    0.00047735
     atom   12 type  2   force =     0.00000002    0.00000002   -0.00047735
     atom   13 type  3   force =     0.00000000    0.00000000    0.00000001
     atom   14 type  4   force =     0.00000000   -0.00000000    0.00008779
     atom   15 type  5   force =     0.00000000    0.00000000   -0.00008778
     atom   16 type  3   force =     0.00000000    0.00000000    0.00000001
     atom   17 type  5   force =     0.00000000    0.00000000    0.00008780
     atom   18 type  4   force =     0.00000000    0.00000000   -0.00008779
     atom   19 type  3   force =     0.00000000    0.00000000    0.00000001
     atom   20 type  5   force =     0.00000000    0.00000000    0.00008780
     atom   21 type  4   force =     0.00000000    0.00000000   -0.00008779
     atom   22 type  3   force =     0.00000000    0.00000000    0.00000001
     atom   23 type  4   force =     0.00000000    0.00000000    0.00008781
     atom   24 type  5   force =     0.00000000    0.00000000   -0.00008780
     atom   25 type  6   force =     0.00000000   -0.00000000    0.00385632
     atom   26 type  6   force =     0.00000000    0.00000000   -0.00385633
     atom   27 type  6   force =     0.00000000   -0.00000000    0.00385636
     atom   28 type  6   force =    -0.00000000    0.00000000   -0.00385637
     atom   29 type  6   force =     0.00000000   -0.00000000    0.00385636
     atom   30 type  6   force =     0.00000000   -0.00000000   -0.00385637
     atom   31 type  6   force =    -0.00000000    0.00000000    0.00385640
     atom   32 type  6   force =     0.00000000   -0.00000000   -0.00385641
     atom   33 type  6   force =     0.00000001    0.00000000   -0.00031428
     atom   34 type  6   force =     0.00000001    0.00000000    0.00031428
     atom   35 type  6   force =     0.00000000    0.00000000   -0.00031428
     atom   36 type  6   force =     0.00000001   -0.00000000    0.00031428
     atom   37 type  6   force =    -0.00000001   -0.00000000   -0.00031428
     atom   38 type  6   force =    -0.00000001   -0.00000000    0.00031428
     atom   39 type  6   force =    -0.00000000   -0.00000000   -0.00031428
     atom   40 type  6   force =    -0.00000001    0.00000000    0.00031428
     atom   41 type  6   force =     0.00000000    0.00000001   -0.00031114
     atom   42 type  6   force =     0.00000000    0.00000001    0.00031114
     atom   43 type  6   force =     0.00000000    0.00000000   -0.00031114
     atom   44 type  6   force =    -0.00000000    0.00000001    0.00031114
     atom   45 type  6   force =     0.00000000   -0.00000001   -0.00031114
     atom   46 type  6   force =     0.00000000   -0.00000001    0.00031114
     atom   47 type  6   force =     0.00000000   -0.00000000   -0.00031114
     atom   48 type  6   force =    -0.00000000   -0.00000001    0.00031114
     The Hubbard contrib.    to forces
     atom    1 type  1   force =    -0.00000002   -0.00000002   -0.00000000
     atom    2 type  1   force =    -0.00000002    0.00000002   -0.00000000
     atom    3 type  1   force =     0.00000002   -0.00000002   -0.00000000
     atom    4 type  1   force =     0.00000002    0.00000002   -0.00000000
     atom    5 type  2   force =    -0.00000000   -0.00000000   -0.00212501
     atom    6 type  2   force =    -0.00000000   -0.00000000    0.00212492
     atom    7 type  2   force =    -0.00000000    0.00000000   -0.00212501
     atom    8 type  2   force =    -0.00000000    0.00000000    0.00212492
     atom    9 type  2   force =     0.00000000   -0.00000000   -0.00212501
     atom   10 type  2   force =     0.00000000   -0.00000000    0.00212492
     atom   11 type  2   force =     0.00000000    0.00000000   -0.00212501
     atom   12 type  2   force =     0.00000000    0.00000000    0.00212492
     atom   13 type  3   force =     0.00000000    0.00000000   -0.00000000
     atom   14 type  4   force =     0.00000000    0.00000000    0.00224463
     atom   15 type  5   force =     0.00000000    0.00000000   -0.00224488
     atom   16 type  3   force =     0.00000000    0.00000000   -0.00000000
     atom   17 type  5   force =     0.00000000    0.00000000    0.00224455
     atom   18 type  4   force =     0.00000000    0.00000000   -0.00224476
     atom   19 type  3   force =     0.00000000    0.00000000   -0.00000000
     atom   20 type  5   force =     0.00000000    0.00000000    0.00224457
     atom   21 type  4   force =     0.00000000    0.00000000   -0.00224480
     atom   22 type  3   force =     0.00000000    0.00000000   -0.00000000
     atom   23 type  4   force =     0.00000000    0.00000000    0.00224443
     atom   24 type  5   force =     0.00000000    0.00000000   -0.00224465
     atom   25 type  6   force =     0.00000000    0.00000000   -0.00020537
     atom   26 type  6   force =     0.00000000    0.00000000    0.00020536
     atom   27 type  6   force =     0.00000000    0.00000000   -0.00020537
     atom   28 type  6   force =     0.00000000    0.00000000    0.00020536
     atom   29 type  6   force =     0.00000000    0.00000000   -0.00020537
     atom   30 type  6   force =     0.00000000    0.00000000    0.00020536
     atom   31 type  6   force =     0.00000000    0.00000000   -0.00020538
     atom   32 type  6   force =     0.00000000    0.00000000    0.00020536
     atom   33 type  6   force =     0.00000010    0.00000000    0.00057113
     atom   34 type  6   force =     0.00000010    0.00000000   -0.00057111
     atom   35 type  6   force =     0.00000010    0.00000000    0.00057114
     atom   36 type  6   force =     0.00000010    0.00000000   -0.00057112
     atom   37 type  6   force =    -0.00000010    0.00000000    0.00057113
     atom   38 type  6   force =    -0.00000010    0.00000000   -0.00057111
     atom   39 type  6   force =    -0.00000010    0.00000000    0.00057114
     atom   40 type  6   force =    -0.00000010    0.00000000   -0.00057112
     atom   41 type  6   force =     0.00000000    0.00000010    0.00057316
     atom   42 type  6   force =     0.00000000    0.00000009   -0.00057314
     atom   43 type  6   force =     0.00000000    0.00000010    0.00057318
     atom   44 type  6   force =     0.00000000    0.00000010   -0.00057316
     atom   45 type  6   force =     0.00000000   -0.00000010    0.00057316
     atom   46 type  6   force =     0.00000000   -0.00000009   -0.00057314
     atom   47 type  6   force =     0.00000000   -0.00000010    0.00057318
     atom   48 type  6   force =     0.00000000   -0.00000010   -0.00057316
     The SCF correction term to forces
     atom    1 type  1   force =    -0.00000000   -0.00000001   -0.00000046
     atom    2 type  1   force =    -0.00000000    0.00000001   -0.00000046
     atom    3 type  1   force =     0.00000000   -0.00000001   -0.00000046
     atom    4 type  1   force =     0.00000000    0.00000001   -0.00000046
     atom    5 type  2   force =     0.00000001    0.00000002    0.00005925
     atom    6 type  2   force =     0.00000002    0.00000002   -0.00005894
     atom    7 type  2   force =     0.00000001   -0.00000002    0.00005925
     atom    8 type  2   force =     0.00000002   -0.00000002   -0.00005894
     atom    9 type  2   force =    -0.00000001    0.00000002    0.00005925
     atom   10 type  2   force =    -0.00000002    0.00000002   -0.00005894
     atom   11 type  2   force =    -0.00000001   -0.00000002    0.00005925
     atom   12 type  2   force =    -0.00000002   -0.00000002   -0.00005894
     atom   13 type  3   force =     0.00000000   -0.00000000    0.00000046
     atom   14 type  4   force =     0.00000000   -0.00000000   -0.00000344
     atom   15 type  5   force =    -0.00000000    0.00000000    0.00000237
     atom   16 type  3   force =     0.00000000    0.00000000    0.00000053
     atom   17 type  5   force =     0.00000000    0.00000000   -0.00000372
     atom   18 type  4   force =    -0.00000000    0.00000000    0.00000247
     atom   19 type  3   force =    -0.00000000   -0.00000000    0.00000054
     atom   20 type  5   force =    -0.00000000   -0.00000000   -0.00000371
     atom   21 type  4   force =     0.00000000   -0.00000000    0.00000248
     atom   22 type  3   force =    -0.00000000   -0.00000000    0.00000050
     atom   23 type  4   force =    -0.00000000    0.00000000   -0.00000363
     atom   24 type  5   force =     0.00000000    0.00000000    0.00000250
     atom   25 type  6   force =    -0.00000000   -0.00000000    0.00000006
     atom   26 type  6   force =     0.00000000    0.00000000    0.00000015
     atom   27 type  6   force =    -0.00000000   -0.00000000   -0.00000029
     atom   28 type  6   force =     0.00000000    0.00000000    0.00000046
     atom   29 type  6   force =    -0.00000000   -0.00000000   -0.00000015
     atom   30 type  6   force =     0.00000000    0.00000000    0.00000037
     atom   31 type  6   force =    -0.00000000   -0.00000000   -0.00000020
     atom   32 type  6   force =     0.00000000    0.00000000    0.00000040
     atom   33 type  6   force =     0.00000002    0.00000000    0.00000172
     atom   34 type  6   force =    -0.00000002   -0.00000000   -0.00000188
     atom   35 type  6   force =     0.00000001    0.00000000    0.00000170
     atom   36 type  6   force =    -0.00000002   -0.00000000   -0.00000186
     atom   37 type  6   force =    -0.00000002    0.00000000    0.00000172
     atom   38 type  6   force =     0.00000002   -0.00000000   -0.00000188
     atom   39 type  6   force =    -0.00000001    0.00000000    0.00000170
     atom   40 type  6   force =     0.00000002   -0.00000000   -0.00000186
     atom   41 type  6   force =     0.00000000   -0.00000001    0.00000159
     atom   42 type  6   force =    -0.00000000    0.00000000   -0.00000172
     atom   43 type  6   force =    -0.00000000   -0.00000003    0.00000156
     atom   44 type  6   force =    -0.00000000   -0.00000000   -0.00000169
     atom   45 type  6   force =     0.00000000    0.00000001    0.00000159
     atom   46 type  6   force =    -0.00000000   -0.00000000   -0.00000172
     atom   47 type  6   force =    -0.00000000    0.00000003    0.00000156
     atom   48 type  6   force =    -0.00000000    0.00000000   -0.00000169

     Total force =     0.003716     Total SCF correction =     0.000168
     Energy error            =      3.4E-05 Ry
     Gradient error          =      9.2E-04 Ry/Bohr

     bfgs converged in  14 scf cycles and  13 bfgs steps
     (criteria: energy <  1.0E-04 Ry, force <  1.0E-03 Ry/Bohr)

     End of BFGS Geometry Optimization

     Final energy             =   -6555.7579542601 Ry

     File ./YBCO.relax/YBCO.relax.bfgs deleted, as requested
Begin final coordinates

ATOMIC_POSITIONS (crystal)
Y                0.2500000714        0.2500000620        0.4999999641
Y                0.2500000714        0.7499999380        0.4999999641
Y                0.7499999286        0.2500000620        0.4999999641
Y                0.7499999286        0.7499999380        0.4999999641
Ba               0.2499998838        0.2499998499        0.2063011086
Ba               0.2499998755        0.2499998635        0.7936989239
Ba               0.2499998838        0.7500001501        0.2063011086
Ba               0.2499998755        0.7500001365        0.7936989239
Ba               0.7500001162        0.2499998499        0.2063011086
Ba               0.7500001245        0.2499998635        0.7936989239
Ba               0.7500001162        0.7500001501        0.2063011086
Ba               0.7500001245        0.7500001365        0.7936989239
Cu               0.0000000000        0.0000000000        0.0000004946
Cu1              0.0000000000        0.0000000000        0.3740445196
Cu2              0.0000000000        0.0000000000        0.6259548866
Cu               0.0000000000        0.5000000000        0.0000005478
Cu2              0.0000000000        0.5000000000        0.3740443515
Cu1              0.0000000000        0.5000000000        0.6259550301
Cu               0.5000000000        0.0000000000        0.0000004827
Cu2              0.5000000000        0.0000000000        0.3740443729
Cu1              0.5000000000        0.0000000000        0.6259550383
Cu               0.5000000000        0.5000000000        0.0000005137
Cu1              0.5000000000        0.5000000000        0.3740441718
Cu2              0.5000000000        0.5000000000        0.6259552249
O                0.0000000000        0.0000000000        0.1466911058
O                0.0000000000        0.0000000000        0.8533095288
O                0.5000000000        0.0000000000        0.1466911126
O                0.5000000000        0.0000000000        0.8533094871
O                0.0000000000        0.5000000000        0.1466911071
O                0.0000000000        0.5000000000        0.8533096239
O                0.5000000000        0.5000000000        0.1466911258
O                0.5000000000        0.5000000000        0.8533095095
O                0.2499993638        0.0000000000        0.3807473874
O                0.2499993681        0.0000000000        0.6192523476
O                0.2499993797        0.5000000000        0.3807473987
O                0.2499993679        0.5000000000        0.6192523213
O                0.7500006362        0.0000000000        0.3807473874
O                0.7500006319        0.0000000000        0.6192523476
O                0.7500006203        0.5000000000        0.3807473987
O                0.7500006321        0.5000000000        0.6192523213
O                0.0000000000        0.2499993641        0.3807763274
O                0.0000000000        0.2499993758        0.6192233990
O                0.5000000000        0.2499993805        0.3807763402
O                0.5000000000        0.2499993748        0.6192233679
O                0.0000000000        0.7500006359        0.3807763274
O                0.0000000000        0.7500006242        0.6192233990
O                0.5000000000        0.7500006195        0.3807763402
O                0.5000000000        0.7500006252        0.6192233679
End final coordinates

     Writing all to output data dir ./YBCO.relax/YBCO.relax.save/

     General routines

     Parallel routines

     Hubbard U routines
                                        0.00s GPU  (      14 calls)

   This run was terminated on:  19:22:20   9Dec2023

   JOB DONE.